PRECURSORMZ: 351.2166000599999
COMPOUNDNAME: Challenge27
FORMULA: C20H30O5
SMILES: C=C1CC[C@H]2[C@@](C)(CC[C@@H](O)[C@@]2(C)CO)[C@@H]1C/C=C1/C(=O)OC[C@H]1O
INCHIKEY: BOJKULTULYSRAS-OTESTREVSA-N
PRECURSORTYPE: [M+H]+
IONMODE: positive
CHARGE: 1
PARENTMASS: 350.2093240599999
NUM PEAKS: 27
111.0464    0.021
133.1032    0.021
145.1016    0.033
147.1194    0.031
175.1519    0.075
177.0935    0.03
187.1482    0.043
201.0939    0.025
203.109     0.025
205.1429    0.023
205.1701    0.023
211.1486    0.043
215.1113    0.036000000000000004
227.1077    0.044000000000000004
229.1237    0.023
241.1214    0.043
255.1408    0.124
257.1563    1.0
269.156     0.03
271.1792    0.043
285.1877    0.647
287.2061    0.107
297.1858    0.885
303.1987    0.092
315.1962    0.467
333.2063    0.262
351.2179    0.105


