PRECURSORMZ: 224.091733896
COMPOUNDNAME: Challenge14
FORMULA: C11H13NO4
SMILES: CC1NC(C(=O)O)Cc2cc(O)c(O)cc21
INCHIKEY: DMJYNLHZLIZUQE-UHFFFAOYSA-N
PRECURSORTYPE: [M+H]+
IONMODE: positive
CHARGE: 1
PARENTMASS: 223.084457896
NUM PEAKS: 4
137.0611    0.1
178.087     1.0
207.0663    0.02
224.0922    0.524


