PRECURSORMZ: 335.09249761199993
COMPOUNDNAME: Challenge20
FORMULA: C20H16O5
SMILES: CC1(C)C=Cc2c(ccc3cc(-c4ccc(O)cc4O)c(=O)oc23)O1
INCHIKEY: VFIXONREXXFDQV-UHFFFAOYSA-N
PRECURSORTYPE: [M-H]-
IONMODE: negative
CHARGE: -1
PARENTMASS: 336.0997736119999
NUM PEAKS: 15
148.0147    0.03
149.0242    0.066
245.0963    0.022000000000000002
252.0372    0.027000000000000003
263.107     0.035
273.0929    0.036000000000000004
275.0712    0.040999999999999995
279.1018    0.02
289.0906    0.06
291.104     0.159
292.0955    0.027000000000000003
307.0992    0.282
317.0819    0.092
319.0617    0.040999999999999995
335.0924    1.0


