PRECURSORMZ: 231.11280368799999
COMPOUNDNAME: Challenge15
FORMULA: C13H14N2O2
SMILES: CC1NC(C(=O)O)Cc2c1[nH]c1ccccc21
INCHIKEY: ZUPHXNBLQCSEIA-UHFFFAOYSA-N
PRECURSORTYPE: [M+H]+
IONMODE: positive
CHARGE: 1
PARENTMASS: 230.105527688
NUM PEAKS: 11
118.0653    0.086
130.0647    0.12300000000000001
143.0718    0.201
144.0813    0.1
146.0593    0.22399999999999998
154.0648    0.145
158.0957    1.0
168.0821    0.402
188.0695    0.285
214.085     0.278
231.1136    0.04


