PRECURSORMZ: 220.084792244
COMPOUNDNAME: Challenge5
FORMULA: C11H12N2O3
SMILES: NC(Cc1c[nH]c2ccc(O)cc12)C(=O)O
INCHIKEY: LDCYZAJDBXYCGN-UHFFFAOYSA-N
PRECURSORTYPE: [M]-
IONMODE: negative
CHARGE: -1
PARENTMASS: 221.092068244
NUM PEAKS: 5
132.0456    0.6779999999999999
144.0456    1.0
158.0613    0.195
175.0879    0.11199999999999999
219.0778    0.539


