PRECURSORMZ: 478.32352471599995
COMPOUNDNAME: Challenge24
FORMULA: C21H43N5O7
SMILES: CNC(C)C1CCC(N)C(OC2C(N)CC(N)C(OC3OCC(C)(O)C(NC)C3O)C2O)O1
INCHIKEY: CEAZRRDELHUEMR-UHFFFAOYSA-N
PRECURSORTYPE: [M+H]+
IONMODE: positive
CHARGE: 1
PARENTMASS: 477.31624871599996
NUM PEAKS: 3
160.097     0.022000000000000002
322.1973    1.0
461.2965    0.276


