PRECURSORMZ: 394.176132216
COMPOUNDNAME: Challenge34
FORMULA: C22H23N3O4
SMILES: C#Cc1cccc(Nc2ncnc3cc(OCCOC)c(OCCOC)cc23)c1
INCHIKEY: AAKJLRGGTJKAMG-UHFFFAOYSA-N
PRECURSORTYPE: [M+H]+
IONMODE: positive
CHARGE: 1
PARENTMASS: 393.168856216
NUM PEAKS: 8
250.1006    0.061
276.0771    0.077
277.0904    0.035
278.094     1.0
292.114     0.04
304.1109    0.11199999999999999
336.1363    0.32299999999999995
394.1775    0.07400000000000001


