PRECURSORMZ: 314.13868408799993
COMPOUNDNAME: Challenge21
FORMULA: C18H19NO4
SMILES: COc1ccc2c(c1O)[C@]13CCN(C)[C@](O)(C1)C(=O)C=C3C=C2
INCHIKEY: KDYWOWVAVXEYRU-MSOLQXFVSA-N
PRECURSORTYPE: [M+H]+
IONMODE: positive
CHARGE: 1
PARENTMASS: 313.13140808799994
NUM PEAKS: 34
141.0719    0.027000000000000003
165.0701    0.043
167.0884    0.043
169.0644    0.18
179.0846    0.021
181.0656    0.040999999999999995
193.0666    0.126
195.0834    0.172
197.0611    0.415
205.0665    0.023
207.0455    0.022000000000000002
207.0845    0.048
208.1118    0.14800000000000002
209.0589    0.022000000000000002
211.0756    0.049
221.0791    0.035
223.0829    0.031
224.0819    0.028999999999999998
225.0547    0.083
225.0893    0.111
229.0842    0.048
236.1095    0.221
237.094     0.054000000000000006
238.0783    0.10099999999999999
239.1054    0.053
240.1008    0.054000000000000006
242.1184    0.045
253.1084    0.52
254.1173    0.037000000000000005
264.1005    0.04
266.0812    0.111
268.135     1.0
281.107     0.175
296.1289    0.6659999999999999


