PRECURSORMZ: 426.242755232
COMPOUNDNAME: Challenge38
FORMULA: C29H31NO2
SMILES: COc1ccc2c(c1)CCC(c1ccccc1)=C2c1ccc(OCCN2CCCC2)cc1
INCHIKEY: JEYWNNAZDLFBFF-UHFFFAOYSA-N
PRECURSORTYPE: [M+H]+
IONMODE: positive
CHARGE: 1
PARENTMASS: 425.235479232
NUM PEAKS: 4
98.0962     0.047
328.1467    0.061
355.1725    0.026000000000000002
426.2435    1.0


