PRECURSORMZ: 210.079074634
COMPOUNDNAME: Challenge36
FORMULA: C9H12N3OP
SMILES: N#CCCP(=O)(CCC#N)CCC#N
INCHIKEY: ILFYYSUCZQEGOL-UHFFFAOYSA-N
PRECURSORTYPE: [M+H]+
IONMODE: positive
CHARGE: 1
PARENTMASS: 209.071798634
NUM PEAKS: 5
54.0347     0.040999999999999995
86.0158     0.255
104.0272    0.534
157.0541    1.0
210.0806    0.39799999999999996


