PRECURSORMZ: 369.13436242399985
COMPOUNDNAME: Challenge28
FORMULA: C21H22O6
SMILES: COc1cc(O)c(CC=C(C)C)c2c1C(=O)C(O)C(c1ccc(O)cc1)O2
INCHIKEY: CTUJEHJOZXGIIE-UHFFFAOYSA-N
PRECURSORTYPE: [M-H]-
IONMODE: negative
CHARGE: -1
PARENTMASS: 370.14163842399984
NUM PEAKS: 22
124.0172    0.02
137.0237    0.026000000000000002
138.0308    0.064
139.0405    0.034
192.0784    0.057
203.07      0.037000000000000005
207.1017    1.0
219.0658    0.055999999999999994
233.0818    0.07200000000000001
235.0964    0.04
247.0612    0.124
262.0847    0.027999999999999997
263.093     0.037000000000000005
283.0616    0.027000000000000003
293.1167    0.023
309.1121    0.04
310.1206    0.028999999999999998
325.1437    0.177
337.1087    0.053
341.139     0.8290000000000001
351.1211    0.025
369.1333    0.244


