PRECURSORMZ: 207.137955816
COMPOUNDNAME: Challenge32
FORMULA: C13H18O2
SMILES: CC(C)Cc1ccc(C(C)C(=O)O)cc1
INCHIKEY: HEFNNWSXXWATRW-UHFFFAOYSA-N
PRECURSORTYPE: [M+H]+
IONMODE: positive
CHARGE: 1
PARENTMASS: 206.130679816
NUM PEAKS: 3
105.07      0.48100000000000004
119.0856    0.7759999999999999
161.1325    1.0


