PRECURSORMZ: 266.09827582
COMPOUNDNAME: Challenge23
FORMULA: C8H15N3O7
SMILES: CN(N=O)C(O)=N[C@H]1[C@@H](O)O[C@H](CO)[C@@H](O)[C@@H]1O
INCHIKEY: ZSJLQEPLLKMAKR-GKHCUFPYSA-N
PRECURSORTYPE: [M+H]+
IONMODE: positive
CHARGE: 1
PARENTMASS: 265.09099982000004
NUM PEAKS: 6
139.0476    0.064
157.0578    0.048
228.0488    1.0
241.0847    0.038
246.0606    0.024
288.0813    0.051


