PRECURSORMZ: 205.118282992
COMPOUNDNAME: Challenge12
FORMULA: C8H16N2O4
SMILES: N[C@@H](CCCCNCC(=O)O)C(=O)O
INCHIKEY: NUXSIDPKKIEIMI-LURJTMIESA-N
PRECURSORTYPE: [M+H]+
IONMODE: positive
CHARGE: 1
PARENTMASS: 204.111006992
NUM PEAKS: 7
84.0816     0.624
130.0881    1.0
142.0893    0.18100000000000002
159.1119    0.027999999999999997
187.1119    0.09
188.0923    0.027000000000000003
205.1178    0.879


