PRECURSORMZ: 275.134995676
COMPOUNDNAME: Challenge16
FORMULA: C10H18N4O5
SMILES: N=C(N)NCCC[C@H](N=C(O)CCC(=O)O)C(=O)O
INCHIKEY: UMOXFSXIFQOWTD-LURJTMIESA-N
PRECURSORTYPE: [M+H]+
IONMODE: positive
CHARGE: 1
PARENTMASS: 274.127719676
NUM PEAKS: 17
70.0666     0.065
95.061      0.027000000000000003
112.0872    0.053
116.0737    0.026000000000000002
140.0845    0.026000000000000002
158.0945    0.057999999999999996
175.1203    0.23800000000000002
197.093     0.071
198.0775    0.031
212.1036    0.044000000000000004
215.1041    0.042
216.0882    0.07
222.0868    0.036000000000000004
240.1024    0.063
257.1251    0.027999999999999997
258.1111    0.024
275.1357    1.0


