PRECURSORMZ: 385.34649202799994
COMPOUNDNAME: Challenge7
FORMULA: C27H44O
SMILES: C=C1CC[C@H](O)C/C1=C/C=C1\CCC[C@@]2(C)[C@H]1CC[C@@H]2[C@H](C)CCCC(C)C
INCHIKEY: QYSXJUFSXHHAJI-YRZJJWOYSA-N
PRECURSORTYPE: [M+H]+
IONMODE: positive
CHARGE: 1
PARENTMASS: 384.33921602799995
NUM PEAKS: 12
95.0855     0.195
107.0855    0.145
121.1019    0.10099999999999999
133.1012    0.084
135.1168    0.091
147.1168    0.1
159.1168    0.10800000000000001
219.2107    0.063
247.242     0.076
259.242     0.244
367.3359    0.6779999999999999
385.3465    1.0


