PRECURSORMZ: 366.1911135839999
COMPOUNDNAME: Challenge19
FORMULA: C19H27NO6
SMILES: C/C=C1\C[C@@H](C)[C@@](C)(O)C(=O)OC/C2=C/CN(C)CCC(OC1=O)C2=O
INCHIKEY: HPDHKHMHQGCNPE-PYWIAZMFSA-N
PRECURSORTYPE: [M+H]+
IONMODE: positive
CHARGE: 1
PARENTMASS: 365.1838375839999
NUM PEAKS: 8
94.0668     0.02
122.062     0.055
124.078     0.02
150.0934    0.16399999999999998
153.0938    0.02
168.104     0.278
348.183     0.02
366.1934    1.0


