PRECURSORMZ: 251.03073093999998
COMPOUNDNAME: Challenge17
FORMULA: C11H10N2OS2
SMILES: CSC1=NC[C@]2(S1)C(O)=Nc1ccccc12
INCHIKEY: FUHQSEOSBHASCH-LLVKDONJSA-N
PRECURSORTYPE: [M+H]+
IONMODE: positive
CHARGE: 1
PARENTMASS: 250.02345494
NUM PEAKS: 14
90.9673     0.204
117.0565    0.027999999999999997
145.0518    0.071
150.039     0.025
160.0217    0.126
160.0651    0.035
175.0892    0.053
176.0169    0.03
178.0323    1.0
203.0279    0.7909999999999999
217.0449    0.035
223.0366    0.024
234.0052    0.025
251.0313    0.47


