PRECURSORMZ: 481.1704377159997
COMPOUNDNAME: Challenge26
FORMULA: C23H28O11
SMILES: C[C@@]12C[C@@]3(O)O[C@@H](O1)[C@]1(COC(=O)c4ccccc4)[C@H]3C[C@]21O[C@@H]1O[C@H](CO)[C@@H](O)[C@H](O)[C@H]1O
INCHIKEY: YKRGDOXKVOZESV-WRJNSLSBSA-N
PRECURSORTYPE: [M+H]+
IONMODE: positive
CHARGE: 1
PARENTMASS: 480.1631617159997
NUM PEAKS: 7
219.0627    0.13
281.051     0.077
307.0788    0.11
341.0995    1.0
342.103     0.115
381.1156    0.9620000000000001
382.1191    0.096


