PRECURSORMZ: 302.07794055608997
COMPOUNDNAME: Challenge31
FORMULA: C16H13O6+
SMILES: COc1cc(-c2[o+]c3cc(O)cc(O)c3cc2O)ccc1O
INCHIKEY: XFDQJKDGGOEYPI-UHFFFAOYSA-O
PRECURSORTYPE: [M+H]+
IONMODE: positive
CHARGE: 1
PARENTMASS: 301.07066455609
NUM PEAKS: 10
201.0563    0.053
202.065     0.065
213.0534    0.035
230.0588    0.11199999999999999
257.047     0.054000000000000006
258.0537    0.332
268.0398    0.057
285.0399    0.022000000000000002
286.0495    1.0
301.0727    0.782


