PRECURSORMZ: 343.1234875239999
COMPOUNDNAME: Challenge8
FORMULA: C12H22O11
SMILES: OC[C@H]1O[C@H](O[C@]2(CO)O[C@H](CO)[C@@H](O)[C@@H]2O)[C@H](O)[C@@H](O)[C@@H]1O
INCHIKEY: CZMRCDWAGMRECN-UGDNZRGBSA-N
PRECURSORTYPE: [M+H]+
IONMODE: positive
CHARGE: 1
PARENTMASS: 342.11621152399994
NUM PEAKS: 4
185.0421    0.532
203.0526    1.0
333.16      0.063
350.1626    0.06


