PRECURSORMZ: 308.091082264
COMPOUNDNAME: Challenge9
FORMULA: C10H17N3O6S
SMILES: NC(CCC(O)=NC(CS)C(O)=NCC(=O)O)C(=O)O
INCHIKEY: RWSXRVCMGQZWBV-UHFFFAOYSA-N
PRECURSORTYPE: [M+H]+
IONMODE: positive
CHARGE: 1
PARENTMASS: 307.08380626400003
NUM PEAKS: 6
116.0165    0.032
144.0114    0.063
162.0219    0.402
179.0485    1.0
233.059     0.21600000000000003
290.0802    0.051


