PRECURSORMZ: 372.1360972439999
COMPOUNDNAME: Challenge29
FORMULA: C21H22ClNO3
SMILES: C[N+]1(C)[C@H]2Cc3cc4c(cc3[C@@H]1Cc1cc3c(cc12)COC3)OCO4.[Cl-]
INCHIKEY: GLCGPUDWOPXBAY-HLRBRJAUSA-M
PRECURSORTYPE: [M+H]+
IONMODE: positive
CHARGE: 1
PARENTMASS: 371.12882124399994
NUM PEAKS: 6
205.0628    0.048
233.0588    0.034
235.074     0.21899999999999997
263.0687    0.21100000000000002
293.0779    0.523
338.1392    1.0


