PRECURSORMZ: 357.145366768
COMPOUNDNAME: Challenge39
FORMULA: C20H24N2S2
SMILES: CSc1ccc2c(c1)C(N1CCN(C)CC1)Cc1ccccc1S2
INCHIKEY: RLJFTICUTYVZDG-UHFFFAOYSA-N
PRECURSORTYPE: [M+H]+
IONMODE: positive
CHARGE: 1
PARENTMASS: 356.138090768
NUM PEAKS: 5
209.0434    0.071
210.0514    0.359
224.0666    0.11599999999999999
242.0238    0.061
257.0465    1.0


