PRECURSORMZ: 309.1597538799999
COMPOUNDNAME: Challenge42
FORMULA: C19H20N2O2
SMILES: CCCCC1C(=O)N(c2ccccc2)N(c2ccccc2)C1=O
INCHIKEY: VYMDGNCVAMGZFE-UHFFFAOYSA-N
PRECURSORTYPE: [M+H]+
IONMODE: positive
CHARGE: 1
PARENTMASS: 308.15247787999994
NUM PEAKS: 12
120.0454    0.1
132.0468    0.034
146.062     0.043
160.1121    0.07
162.13      0.064
188.1075    0.374
190.1238    0.253
211.0868    0.314
216.1046    0.075
253.0981    0.033
263.1545    0.031
309.1604    1.0


