PRECURSORMZ: 480.30846544199983
COMPOUNDNAME: Challenge1
FORMULA: C23H46NO7P
SMILES: CCCCCCCC/C=C\CCCCCCCC(=O)OC[C@@H](O)COP(=O)(O)OCCN
INCHIKEY: PYVRVRFVLRNJLY-MZMPXXGTSA-N
PRECURSORTYPE: [M+H]+
IONMODE: positive
CHARGE: 1
PARENTMASS: 479.30118944199984
NUM PEAKS: 6
155.0103    0.047
308.2948    0.079
339.2894    1.0
419.2558    0.172
462.2979    0.11800000000000001
480.3084    0.152


