PRECURSORMZ: 226.05897142
COMPOUNDNAME: Challenge4
FORMULA: C9H10N2O5
SMILES: N[C@@H](Cc1ccc(O)c([N+](=O)[O-])c1)C(=O)O
INCHIKEY: FBTSQILOGYXGMD-LURJTMIESA-N
PRECURSORTYPE: [M]-
IONMODE: negative
CHARGE: -1
PARENTMASS: 227.06624742
NUM PEAKS: 6
119.0505    0.518
134.0614    0.055999999999999994
136.0406    0.184
163.0516    1.0
181.0622    0.521
225.0523    0.055999999999999994


