PRECURSORMZ: 523.090332696
COMPOUNDNAME: Challenge41
FORMULA: C31H23BrO3
SMILES: O=c1oc2ccccc2c(O)c1C1CC(c2ccc(-c3ccc(Br)cc3)cc2)Cc2ccccc21
INCHIKEY: VEUZZDOCACZPRY-UHFFFAOYSA-N
PRECURSORTYPE: [M+H]+
IONMODE: positive
CHARGE: 1
PARENTMASS: 522.083056696
NUM PEAKS: 10
107.0511    0.03
121.0281    0.024
165.0718    0.113
175.0409    0.111
178.0796    0.401
189.0551    0.096
291.0994    0.145
335.0461    1.0
419.0258    0.02
523.093     0.075


