PRECURSORMZ: 253.009995496
COMPOUNDNAME: Challenge18
FORMULA: C10H8N2O2S2
SMILES: [O-][n+]1ccccc1SSc1cccc[n+]1[O-]
INCHIKEY: ZHDBTKPXEJDTTQ-UHFFFAOYSA-N
PRECURSORTYPE: [M+H]+
IONMODE: positive
CHARGE: 1
PARENTMASS: 252.002719496
NUM PEAKS: 7
78.0336     0.643
96.0453     0.38
126.002     0.28300000000000003
127.0086    0.136
141.9957    0.773
205.0487    0.16399999999999998
253.0097    1.0


