PRECURSORMZ: 382.083158348
COMPOUNDNAME: Challenge33
FORMULA: C17H14F3N3O2S
SMILES: Cc1ccc(-c2cc(C(F)(F)F)nn2-c2ccc(S(N)(=O)=O)cc2)cc1
INCHIKEY: RZEKVGVHFLEQIL-UHFFFAOYSA-N
PRECURSORTYPE: [M+H]+
IONMODE: positive
CHARGE: 1
PARENTMASS: 381.075882348
NUM PEAKS: 19
207.1052    0.040999999999999995
233.1087    0.05
261.0864    0.023
262.0959    0.027999999999999997
263.101     0.066
267.08      0.057
275.0802    0.037000000000000005
281.0915    0.12300000000000001
282.0983    0.22699999999999998
283.104     0.138
286.0854    0.023
287.0835    0.096
300.0885    0.22899999999999998
301.0947    0.217
302.1031    0.17300000000000001
303.1137    0.23600000000000002
342.0779    0.066
362.0806    1.0
382.042     0.38799999999999996


