PRECURSORMZ: 352.2249741239999
COMPOUNDNAME: Challenge13
FORMULA: C20H32O5
SMILES: CCCCC[C@H](O)/C=C/[C@H]1C(=O)C[C@H](O)[C@@H]1C/C=C\CCCC(=O)O
INCHIKEY: BHMBVRSPMRCCGG-OUTUXVNYSA-N
PRECURSORTYPE: [M]-
IONMODE: negative
CHARGE: -1
PARENTMASS: 353.2322501239999
NUM PEAKS: 6
189.129     0.324
233.1188    0.527
251.1279    0.026000000000000002
271.1926    0.758
315.1974    0.884
333.2082    1.0


