PRECURSORMZ: 181.07200149599998
COMPOUNDNAME: Challenge11
FORMULA: C7H8N4O2
SMILES: Cn1c(=O)c2nc[nH]c2n(C)c1=O
INCHIKEY: ZFXYFBGIUFBOJW-UHFFFAOYSA-N
PRECURSORTYPE: [M+H]+
IONMODE: positive
CHARGE: 1
PARENTMASS: 180.064725496
NUM PEAKS: 5
109.0271    0.073
124.0506    1.0
125.0539    0.055999999999999994
142.0611    0.034
181.072     0.037000000000000005


