PRECURSORMZ: 209.04554742000002
COMPOUNDNAME: Challenge35
FORMULA: C10H10O5
SMILES: O=C(O)C(Cc1ccc(O)cc1)C(=O)O
INCHIKEY: JXJNPXPDKYRHJT-UHFFFAOYSA-N
PRECURSORTYPE: [M-H]-
IONMODE: negative
CHARGE: -1
PARENTMASS: 210.05282342
NUM PEAKS: 5
59.0125     0.047
93.033      0.066
119.0483    0.037000000000000005
121.0646    0.213
165.0546    1.0


