PRECURSORMZ: 473.36253601599986
COMPOUNDNAME: Challenge30
FORMULA: C30H48O4
SMILES: C[C@@H]1C2C3=CCC4[C@@]5(C)C[C@@H](O)[C@@H](O)C(C)(C)C5CC[C@@]4(C)[C@]3(C)CC[C@@]2(C(=O)O)CC[C@H]1C
INCHIKEY: HFGSQOYIOKBQOW-FCPFUEDDSA-N
PRECURSORTYPE: [M+H]+
IONMODE: positive
CHARGE: 1
PARENTMASS: 472.3552600159999
NUM PEAKS: 30
95.0854     0.051
119.0886    0.028999999999999998
121.1034    0.027999999999999997
133.1034    0.057
145.1018    0.063
147.1178    0.055
149.1305    0.023
159.1154    0.047
161.1328    0.027999999999999997
163.1132    0.105
175.1512    0.045
177.1672    0.121
187.1511    0.29
189.1642    0.311
191.1828    0.035
201.1723    0.023
203.1818    0.385
205.1606    0.6709999999999999
207.1759    0.11599999999999999
213.1691    0.051
223.1708    0.033
249.1859    0.128
295.2424    0.043
313.2556    0.10400000000000001
391.3397    0.11800000000000001
409.3496    0.8
427.3609    0.08900000000000001
437.3434    1.0
455.3524    0.532
473.3648    0.067


