PRECURSORMZ: 228.115029752
COMPOUNDNAME: Challenge40
FORMULA: C15H16O2
SMILES: CC(C)(c1ccc(O)cc1)c1ccc(O)cc1
INCHIKEY: IISBACLAFKSPIT-UHFFFAOYSA-N
PRECURSORTYPE: [M]-
IONMODE: negative
CHARGE: -1
PARENTMASS: 229.122305752
NUM PEAKS: 4
133.0679    0.10300000000000001
211.0769    0.077
212.0847    0.298
227.1081    1.0


