PRECURSORMZ: 348.07036041799995
COMPOUNDNAME: Challenge10
FORMULA: C10H14N5O7P
SMILES: Nc1ncnc2c1ncn2[C@@H]1O[C@H](COP(=O)(O)O)[C@@H](O)[C@H]1O
INCHIKEY: UDMBCSSLTHHNCD-KQYNXXCUSA-N
PRECURSORTYPE: [M+H]+
IONMODE: positive
CHARGE: 1
PARENTMASS: 347.06308441799996
NUM PEAKS: 3
85.028      0.11900000000000001
98.9844     0.172
136.0619    1.0


