PRECURSORMZ: 206.06678209999998
COMPOUNDNAME: Challenge2
FORMULA: C8H15NOS2
SMILES: N=C(O)CCCCC1CCSS1
INCHIKEY: FCCDDURTIIUXBY-UHFFFAOYSA-N
PRECURSORTYPE: [M+H]+
IONMODE: positive
CHARGE: 1
PARENTMASS: 205.0595061
NUM PEAKS: 5
101.0403    0.701
127.0555    0.257
161.046     1.0
171.0267    0.262
189.0406    0.591


