PRECURSORMZ: 305.0818091759999
COMPOUNDNAME: Challenge37
FORMULA: C13H18Cl2N2O2
SMILES: N[C@@H](Cc1ccc(N(CCCl)CCCl)cc1)C(=O)O
INCHIKEY: SGDBTWWWUNNDEQ-LBPRGKRZSA-N
PRECURSORTYPE: [M+H]+
IONMODE: positive
CHARGE: 1
PARENTMASS: 304.07453317599993
NUM PEAKS: 3
246.0469    0.26899999999999996
259.0789    0.051
288.0562    1.0


