PRECURSORMZ: 285.07574948399997
COMPOUNDNAME: Challenge22
FORMULA: C16H12O5
SMILES: Oc1ccc2c(c1)OC[C@H]1c3cc4c(cc3O[C@@H]21)OCO4
INCHIKEY: HUKSJTUUSUGIDC-ZBEGNZNMSA-N
PRECURSORTYPE: [M+H]+
IONMODE: positive
CHARGE: 1
PARENTMASS: 284.068473484
NUM PEAKS: 13
67.056      0.033
93.0352     0.027999999999999997
95.0507     0.034
121.0289    0.04
123.045     0.409
147.0462    0.055999999999999994
151.04      1.0
163.0395    0.051
175.0393    0.249
227.0724    0.043
255.0678    0.151
257.0836    0.033
285.0768    0.245


