PRECURSORMZ: 285.04362927200003
COMPOUNDNAME: Training-025
FORMULA: C15H11ClN2O2
SMILES: OC1N=C(c2ccccc2)c2cc(Cl)ccc2NC1=O
INCHIKEY: ADIMAYPTOBDMTL-UHFFFAOYSA-N
PRECURSORTYPE: [M-H]-
IONMODE: negative
CHARGE: -1
PARENTMASS: 286.050905272
NUM PEAKS: 3
179.0013    0.016299999705501524
257.0489    0.1895598327641332
285.0437    1.0


