PRECURSORMZ: 314.020114868
COMPOUNDNAME: Training-055
FORMULA: C14H9ClF3NO2
SMILES: FC(F)(F)[C@]1(OC(=O)NC2=C1C=C(Cl)C=C2)C#CC1CC1
INCHIKEY: XPOQHMRABVBWPR-ZDUSSCGKSA-N
PRECURSORTYPE: [M-H]-
IONMODE: negative
CHARGE: -1
PARENTMASS: 315.027390868
NUM PEAKS: 34
111.0055    0.014133805977752547
126.0113    0.004040393841793234
151.9909    0.01828755737865922
161.0221    0.019896316843097533
164.0509    0.003190166254693783
198.0116    0.010983934434354959
200.0273    0.05755048541817925
202.0064    0.01784321410443398
203.9858    0.005825844238452903
206.0226    0.004273258722336396
208.0405    0.026204871529629463
210.0118    0.014996424876981808
214.0474    0.027375804632147838
215.0139    0.004643529486274557
216.0223    0.05023630691169033
218.0012    0.0035337268569299103
221.993     0.04169814212926801
224.9721    0.002575924323044261
226.0065    0.021352341912098786
230.018     0.10704349717707552
232.9865    0.002943900399550976
241.9991    0.19647536010529862
244.0172    0.3078468213530762
245.9942    0.0033064610137194775
246.0131    0.0063376513231626665
247.9738    0.005196090219766805
250.0242    0.09832111488765669
254.0014    0.014642767650047316
270.0299    0.02565515620855221
272.0125    0.0038464468600874005
274.0074    0.02044080027683109
294.0141    0.004376886806740507
296.0096    0.01881083790052622
314.0203    1.0


