PRECURSORMZ: 329.18596862799996
COMPOUNDNAME: Training-148
FORMULA: C19H24N2O3
SMILES: CC(CCC1=CC=CC=C1)NCC(O)C1=CC(C(N)=O)=C(O)C=C1
INCHIKEY: SGUAFYQXFOLMHL-UHFFFAOYSA-N
PRECURSORTYPE: [M+H]+
IONMODE: positive
CHARGE: 1
PARENTMASS: 328.17869262799996
NUM PEAKS: 39
65.0387     0.007779937427274923
79.0543     0.004500299236219483
91.0543     0.8429000622195196
94.0652     0.0037783168993935014
105.0701    0.003553893029608241
106.0652    0.031533797482251096
107.0493    0.012552310326344742
116.0494    0.011287347032698262
117.0334    0.0013729018374724932
118.0652    0.0032342288805850454
119.0492    0.006447370866161346
120.0445    0.010228593803273239
133.0523    0.004789367618515929
133.1013    0.009538320884816657
134.0601    0.07268106427140626
135.0442    0.012503678674730822
136.0758    0.00560444859680552
144.0445    0.013772384892241354
145.0284    0.0038324838609472152
147.044     0.020792594440624642
148.0758    0.0011000901332968531
148.112     0.001754264923360339
161.0599    0.004380301624310343
162.055     1.0
164.0707    0.09120523598146514
165.0548    0.08185644015519428
172.076     0.001495950459503211
179.0816    0.09767674475275682
180.0656    0.023660576903181237
190.0864    0.10915313579920848
194.0813    0.013059061361678339
207.113     0.14636191095241466
208.0976    0.006764992222230569
222.113     0.0010545951573154853
252.1021    0.0017537772889132618
294.1491    0.2574861310832562
311.1757    0.9519450090680238
312.1597    0.03256821511690509
329.1862    0.6109003300230862


