PRECURSORMZ: 450.92634504800003
COMPOUNDNAME: Training-056
FORMULA: C12H4Cl2F6N4O2S
SMILES: C1=C(C=C(C(=C1Cl)N2C(=C(C(=N2)C#N)S(=O)(=O)C(F)(F)F)N)Cl)C(F)(F)F
INCHIKEY: LGHZJDKSVUTELU-UHFFFAOYSA-N
PRECURSORTYPE: [M-H]-
IONMODE: negative
CHARGE: -1
PARENTMASS: 451.933621048
NUM PEAKS: 41
132.9575    0.04935890060844585
148.007     0.0014592399166882138
148.9911    0.001551647335656515
150.0034    0.00916065679589593
170.0097    0.04124239582219601
182.0097    0.024118806759503036
183.0176    0.18725725611517458
194.0096    0.0011852228178873016
198.0031    0.006538502599566602
201.9985    0.0018241256396463069
207.0106    0.0061246943638570426
211.0062    0.001084340067912676
216.9794    0.005289033105057508
216.9922    0.004018104200008882
217.9865    0.0853442311898081
218.0097    0.09047437775084488
226.0099    0.006546571306037346
227.0175    0.014565593839654232
233.9813    0.09573871838165349
235.0241    0.0038474375040014647
241.98      0.01024447463033644
243.9895    0.3586359437113642
246.0159    0.15693538409235383
246.9896    0.001068106978609875
251.0186    0.006336657369316255
253.9874    0.00112166979488503
257.9808    0.002979042970087663
257.9928    0.00564958149963607
259.9845    0.014541555153874298
261.9864    0.08022903007371146
271.9843    0.012635323250161075
281.9925    0.6497581421181455
283.0004    0.1189874682304649
283.9841    0.005393810680240591
284.9795    0.004397568608522069
297.9874    0.06584933540408872
300.9907    0.009345882244883167
313.9837    0.0012969090236602061
345.9545    0.02227202575480078
414.9499    1.0
450.9266    0.3128375830779771


