PRECURSORMZ: 127.07267019199999
COMPOUNDNAME: Training-065
FORMULA: C3H6N6
SMILES: Nc1nc(N)nc(N)n1
INCHIKEY: JDSHMPZPIAZGSV-UHFFFAOYSA-N
PRECURSORTYPE: [M+H]+
IONMODE: positive
CHARGE: 1
PARENTMASS: 126.06539419199999
NUM PEAKS: 5
60.0558     0.008894047485984003
68.0244     0.006400756811253515
85.0509     0.1545864977263712
110.0461    0.006414642245922154
127.0726    1.0


