PRECURSORMZ: 202.04334422399998
COMPOUNDNAME: Training-104
FORMULA: C10H7N3S
SMILES: N1C2=CC=CC=C2N=C1C1=CSC=N1
INCHIKEY: WJCNZQLZVWNLKY-UHFFFAOYSA-N
PRECURSORTYPE: [M+H]+
IONMODE: positive
CHARGE: 1
PARENTMASS: 201.036068224
NUM PEAKS: 6
92.0494     0.001969719044864634
131.0603    0.004047577582941974
143.0604    0.0010788189077596579
158.0714    0.002223961286495306
175.0325    0.08264780219198167
202.0433    1.0


