PRECURSORMZ: 175.050203432
COMPOUNDNAME: Training-163
FORMULA: C9H6N2O2
SMILES: CC1=C(C=C(C=C1)N=C=O)N=C=O
INCHIKEY: DVKJHBMWWAPEIU-UHFFFAOYSA-N
PRECURSORTYPE: [M+H]+
IONMODE: positive
CHARGE: 1
PARENTMASS: 174.042927432
NUM PEAKS: 26
53.0388     0.004572541768187541
65.0388     0.0033712991683929362
77.0387     0.01112233423835216
79.0543     0.01475342417313085
92.0497     0.021847842753545885
95.0492     0.018958670391605238
96.0445     0.010845348687428646
104.0496    0.14911765710743805
105.0447    0.010622937887429334
105.0574    0.0023821504978749864
106.0289    0.04293649838978319
107.0492    0.00220534325686713
119.0566    0.002280551749236645
119.0605    0.0403729802950012
120.0445    0.0970354023418848
131.0605    0.044107537976737554
132.0445    0.21242855473574643
133.0523    0.03158061412144856
147.0554    0.45194764203060245
148.0393    0.01142989660177978
158.9948    0.0030588026494023056
160.0269    0.16302704163956308
160.0504    0.014649358346711001
161.0101    0.024623380017671753
173.0349    0.038779995647476716
175.0504    1.0


