PRECURSORMZ: 422.81953305599995
COMPOUNDNAME: Training-058
FORMULA: C13H8Br2Cl2O2
SMILES: Oc1c(Br)cc(Cl)cc1Cc1cc(Cl)cc(Br)c1O
INCHIKEY: TYBHZVUFOINFDV-UHFFFAOYSA-N
PRECURSORTYPE: [M-H]-
IONMODE: negative
CHARGE: -1
PARENTMASS: 423.82680905599995
NUM PEAKS: 5
124.9794    0.004088771027086916
204.9061    1.0
342.8932    0.03220847635596318
386.8432    0.0029777115753667673
422.8197    0.6825105391624787


