PRECURSORMZ: 382.06785740000004
COMPOUNDNAME: Training-013
FORMULA: C16H15F2N3O4S
SMILES: COC1=CC=NC(CS(=O)C2=NC3=CC=C(OC(F)F)C=C3N2)=C1OC
INCHIKEY: IQPSEEYGBUAQFF-UHFFFAOYSA-N
PRECURSORTYPE: [M-H]-
IONMODE: negative
CHARGE: -1
PARENTMASS: 383.0751334
NUM PEAKS: 18
102.0211    0.017329558378374046
130.017     0.0034663729002458636
133.9943    0.001355369658431676
141.0095    0.0011362699705960329
147.0198    0.006525480900933737
150.997     0.0011645379921579211
161.0156    0.13537407789992922
161.9893    0.029103504649134665
162.0234    0.03649668229094929
178.0184    0.018944258758514975
178.992     0.017574313682974588
181.995     0.0019139918869516956
182.0298    0.0020305952238213842
189.9838    0.006467071132990051
198.0246    0.002311437747789973
209.9904    0.060625735808583874
229.9966    1.0
382.0677    0.015264425361478002


