PRECURSORMZ: 239.06734548400001
COMPOUNDNAME: Training-054
FORMULA: C10H12N2O5
SMILES: CCC(C)c1cc(cc(c1O)N(=O)=O)N(=O)=O
INCHIKEY: OWZPCEFYPSAJFR-UHFFFAOYSA-N
PRECURSORTYPE: [M-H]-
IONMODE: negative
CHARGE: -1
PARENTMASS: 240.074621484
NUM PEAKS: 18
51.9954     0.0040166702182889
136.0401    0.005126528329788862
176.0351    0.010574669162813514
177.0426    0.006401644138893697
178.0509    0.00461298520761258
179.0711    0.01695046273585513
180.0306    0.005091631853617863
192.0669    0.058841787386068004
193.0255    0.12771681223550546
194.0459    0.1461331772526462
207.0412    0.01897027506718287
208.0615    0.005736394307297797
209.0208    0.005148839191603107
209.0697    0.009846670032365052
210.0285    0.006994169142075853
221.0564    0.007174408011315612
222.0646    0.009627959228330218
239.0674    1.0


