PRECURSORMZ: 136.11207541599998
COMPOUNDNAME: Training-101
FORMULA: C9H13N
SMILES: CC(C)C1=CC=C(C=C1)N
INCHIKEY: LRTFPLFDLJYEKT-UHFFFAOYSA-N
PRECURSORTYPE: [M+H]+
IONMODE: positive
CHARGE: 1
PARENTMASS: 135.104799416
NUM PEAKS: 14
77.0385     0.0019561931102148678
79.0543     0.0017074361024624004
91.0542     0.0249444370798598
93.0573     0.0021589910642575627
94.0651     0.24621963211563733
95.0491     0.002334590406597109
103.0543    0.0014712319487635798
104.062     0.0022814619754097172
117.0699    0.0035030384196939415
119.0857    0.0011757658350227942
120.0808    0.0022186285398161027
121.0886    0.011909118994009395
136.112     1.0
147.0916    0.0036340574473098554


