PRECURSORMZ: 183.00474522800002
COMPOUNDNAME: Training-006
FORMULA: C6H4N2O5
SMILES: OC1=C(C(=CC=C1)[N+]([O-])=O)[N+]([O-])=O
INCHIKEY: MHKBMNACOMRIAW-UHFFFAOYSA-N
PRECURSORTYPE: [M-H]-
IONMODE: negative
CHARGE: -1
PARENTMASS: 184.012021228
NUM PEAKS: 18
79.0173     0.013133283372588012
81.033      0.002840134158265066
82.0043     0.0012275539466495887
91.0174     0.013754621968589736
92.0126     0.004149946270234162
93.0206     0.006722304793911117
94.0047     0.0032570522389477616
95.0125     0.041935760852050356
97.0282     0.00814759689165361
107.0128    0.008865702428055032
109.0159    0.012287275040209399
111.0077    0.002365512467803981
123.0083    0.02127192597702997
125.0114    0.03292032172046502
136.004     0.0010880611093921214
137.0118    0.20813252215711084
153.0068    0.07359047189457436
183.0048    1.0


