PRECURSORMZ: 434.2197637880001
COMPOUNDNAME: Training-049
FORMULA: C24H29N5O3
SMILES: CCCCC(=O)N(CC1=CC=C(C=C1)C1=CC=CC=C1C1=NNN=N1)[C@@H](C(C)C)C(O)=O
INCHIKEY: ACWBQPMHZXGDFX-QFIPXVFZSA-N
PRECURSORTYPE: [M-H]-
IONMODE: negative
CHARGE: -1
PARENTMASS: 435.22703978800007
NUM PEAKS: 55
83.0485     0.0023301286047267295
99.0802     0.006760093317341142
100.0755    0.023718497843663238
101.0596    0.03156510728369629
114.0915    0.0069367622702269805
116.0709    0.2146225010784004
125.0967    0.01518552766546911
141.1284    0.038627926131093275
154.1237    0.0012165119678984716
156.1394    0.07471450876760412
164.0632    0.019874927208617138
165.0712    0.009442177990360755
167.0503    0.007377980914761974
178.0787    0.08114170299919575
179.0866    0.6047419918651021
180.0579    0.007484155531789326
181.0659    0.005302976632612622
190.0664    0.0019204859778041842
192.0583    0.016801246293659235
192.0819    0.11941715745099658
193.0659    0.02791346768712271
194.0977    0.004755480248850368
195.045     0.00743836927502928
195.0813    0.0021757959203414006
200.1292    0.005855402257530576
204.0823    0.010967066584870138
205.1022    0.006999171825612523
206.0847    0.014809214133557479
207.0927    0.02614686065602425
209.0613    0.0020182870721988425
210.0689    0.0023829065466406756
221.134     0.0016202560049861645
222.1039    0.0027569101412743204
223.0763    0.005359858838082988
234.0914    0.007026684828548515
234.1283    0.0017145715690238647
235.0989    0.059535663420689174
248.1443    0.01323841553564816
250.1098    0.005751228211181478
276.1507    0.06509559995103757
278.1548    0.0053468654408943255
294.1507    0.0088603006651485
304.1568    0.06163040529190131
307.1451    0.04476685256505644
316.206     0.002034662877544553
332.2019    0.02010101231969986
334.1679    0.0013681428506461587
334.2179    0.002252993199194038
350.1621    0.19729652778271903
362.2237    0.005831209789431686
390.2298    0.0052589434532510455
391.2031    0.03976977762625689
406.2137    0.005342616806258032
416.2092    0.002835633628685626
434.2197    1.0


