PRECURSORMZ: 307.09758299199996
COMPOUNDNAME: Training-040
FORMULA: C19H16O4
SMILES: CC(=O)CC(C1=CC=CC=C1)C1=C(O)C2=CC=CC=C2OC1=O
INCHIKEY: PJVWKTKQMONHTI-UHFFFAOYSA-N
PRECURSORTYPE: [M-H]-
IONMODE: negative
CHARGE: -1
PARENTMASS: 308.10485899199995
NUM PEAKS: 16
130.0422    0.004409874090543303
133.0658    0.006396893605816745
157.0659    0.0043290895509395045
161.0244    0.568285960525063
195.0815    0.003336360696206873
206.0737    0.011460944281745903
219.0815    0.002046915573071634
221.0608    0.0023346527998347813
221.0971    0.0025360452436358023
222.0684    0.0025025281396080503
223.0763    0.01842625469628566
250.0636    0.36621609016353235
261.0925    0.0033863009128567104
263.1083    0.003368756090908476
289.0875    0.0034978814721420537
307.0975    1.0


