PRECURSORMZ: 153.10223900399998
COMPOUNDNAME: Training-098
FORMULA: C8H12N2O
SMILES: CC(C)C1=NC(O)=CC(C)=N1
INCHIKEY: AJPIUNPJBFBUKK-UHFFFAOYSA-N
PRECURSORTYPE: [M+H]+
IONMODE: positive
CHARGE: 1
PARENTMASS: 152.094963004
NUM PEAKS: 5
70.0652     0.05262488309088555
84.0444     0.2064326743453921
136.0756    0.0010754783930078777
138.0783    0.0013560515541177264
153.1022    1.0


