PRECURSORMZ: 202.086254592
COMPOUNDNAME: Training-201
FORMULA: C12H11NO2
SMILES: CNC(=O)Oc1cccc2ccccc12
INCHIKEY: CVXBEEMKQHEXEN-UHFFFAOYSA-N
PRECURSORTYPE: [M+H]+
IONMODE: positive
CHARGE: 1
PARENTMASS: 201.078978592
NUM PEAKS: 10
58.0289     0.004027254726108007
91.0541     0.001948170983832881
103.0542    0.007960330810407134
115.0541    0.005531143886240452
117.0699    0.08858050620608066
127.0541    0.009510045360669869
144.0569    0.0015468424932804023
145.0647    1.0
155.0603    0.048498643215454336
202.0855    0.002395700658219035


