PRECURSORMZ: 355.1121875
COMPOUNDNAME: Training-009
FORMULA: C19H20N2O3S
SMILES: CCC1=CC=C(CCOC2=CC=C(CC3SC(=O)NC3=O)C=C2)N=C1
INCHIKEY: HYAFETHFCAUJAY-UHFFFAOYSA-N
PRECURSORTYPE: [M-H]-
IONMODE: negative
CHARGE: -1
PARENTMASS: 356.1194635
NUM PEAKS: 7
119.0494    0.0028906117475969253
150.0145    0.032578805281413464
178.0095    0.003360871419333299
234.995     0.001930803656308903
284.1115    0.0022817486451307983
312.1063    0.032468032758245745
355.1122    1.0


