PRECURSORMZ: 312.06649346
COMPOUNDNAME: Training-268
FORMULA: C14H15Cl2N3O
SMILES: OC(Cc1ccccc1Cl)(Cn1cncn1)C1(Cl)CC1
INCHIKEY: HHUQPWODPBDTLI-UHFFFAOYSA-N
PRECURSORTYPE: [M+H]+
IONMODE: positive
CHARGE: 1
PARENTMASS: 311.05921746
NUM PEAKS: 39
56.0497     0.003052052274514318
57.0337     0.0018048785173962211
65.0386     0.004114415977904372
67.0543     0.003142643149428339
70.0401     0.9285431402716294
74.9997     0.0034427913885273554
83.0491     0.003252400580370164
85.0887     0.002055098493489172
89.0153     0.0021334823081383455
101.0153    0.0025349790001212217
103.0542    0.006044556930118457
113.0152    0.003624155650035297
115.0543    0.005335310175345904
116.0621    0.004904305306217247
125.0153    0.2974833704978047
128.0618    0.0031985815644980427
129.0698    0.0021732896618253815
130.0776    0.0020517213200014353
137.0153    0.0020123688306949218
139.0309    0.01927966516548688
141.0698    0.00326086968824515
142.0778    0.008492272710140553
143.0857    0.0017726284205942897
144.0935    0.0031525490062253177
149.0154    0.0022057321740417794
151.0309    0.015544148386919329
153.07      0.013732263684725758
154.0777    0.018503900684897007
155.0258    0.002018582716726819
158.9764    0.004237832073634889
163.0307    0.003981451267230942
165.0466    0.002210288599352737
177.0465    0.006381888740653562
179.062     0.0037165617380137362
189.0466    0.01882814683242915
196.992     0.0017634264363612616
225.0236    0.0016341784557893327
269.9486    0.003029817682999227
312.0666    1.0


