PRECURSORMZ: 364.073736536
COMPOUNDNAME: Training-267
FORMULA: C14H13F4N3O2S
SMILES: CC(C)N(C(=O)COc1nnc(s1)C(F)(F)F)c1ccc(F)cc1
INCHIKEY: IANUJLZYFUDJIH-UHFFFAOYSA-N
PRECURSORTYPE: [M+H]+
IONMODE: positive
CHARGE: 1
PARENTMASS: 363.066460536
NUM PEAKS: 20
57.0701     0.008590972200026348
83.0292     0.0017473065970225635
97.0448     0.03830901408567258
104.0496    0.0016532823803373261
109.0448    0.1497664041360461
110.0401    0.0031302877190802626
112.0557    0.002275248720873076
123.0241    0.009002219833829685
124.0557    0.501685323892873
125.0396    0.0032007016900852197
132.0443    0.004441892410438629
135.0604    0.0016768611436911547
137.0637    0.0019176334789176052
138.0349    0.002187729352496096
152.0507    1.0
152.087     0.1392222384197959
166.1027    0.015444821586058019
194.0977    0.570035373542001
210.9786    0.0016400223242676027
364.0739    0.02911984020410622


