PRECURSORMZ: 298.27405536
COMPOUNDNAME: Training-203
FORMULA: C18H35NO2
SMILES: CCCN(CC)CC1COC2(CCC(CC2)C(C)(C)C)O1
INCHIKEY: PUYXTUJWRLOUCW-UHFFFAOYSA-N
PRECURSORTYPE: [M+H]+
IONMODE: positive
CHARGE: 1
PARENTMASS: 297.26677936
NUM PEAKS: 13
57.0701     0.0011104472310107531
58.0653     0.019290252006104635
72.0808     0.04772588907292273
83.0855     0.0028422529801618835
84.0808     0.005483348242553535
86.0965     0.0035811942497864548
100.1121    0.3873541570163994
102.0913    0.012518355428018569
116.1071    0.0010685905802413523
126.1278    0.006607274860593479
144.1383    1.0
160.1334    0.004017822361422163
298.2742    0.7038529975677785


