PRECURSORMZ: 120.080775288
COMPOUNDNAME: Training-068
FORMULA: C8H9N
SMILES: C1CC2=CC=CC=C2N1
INCHIKEY: LPAGFVYQRIESJQ-UHFFFAOYSA-N
PRECURSORTYPE: [M+H]+
IONMODE: positive
CHARGE: 1
PARENTMASS: 119.073499288
NUM PEAKS: 10
77.0383     0.001012591170926394
79.0542     0.0016934101248390063
91.0541     0.002193765304166164
93.0572     0.0018241784439177622
93.0698     0.006885195494913773
94.065      0.003802035996896937
103.0541    0.01735813270012063
118.065     0.008165569881661533
119.0729    0.002050098428124536
120.0806    1.0


