PRECURSORMZ: 323.01960284399996
COMPOUNDNAME: Training-137
FORMULA: C11H12Cl2N2O5
SMILES: OC[C@@H](NC(=O)C(Cl)Cl)[C@H](O)C1=CC=C(C=C1)[N+]([O-])=O
INCHIKEY: WIIZWVCIJKGZOK-RKDXNWHRSA-N
PRECURSORTYPE: [M+H]+
IONMODE: positive
CHARGE: 1
PARENTMASS: 322.012326844
NUM PEAKS: 22
82.9451     0.12412080418131582
118.0652    0.01581506020965574
119.0731    0.07345732509842975
127.9669    0.011647228866923527
132.0571    0.041903616793247646
145.0523    0.012017490508182698
146.0604    0.008035632766750617
148.0631    0.011108411091555477
149.0154    0.009495047961243326
150.0236    0.009273958498670513
164.0261    0.013363130312151915
165.0661    0.6890799503883112
170.0603    0.018931663129328907
178.0502    0.009170296476193553
206.0368    0.05804314756106297
229.0059    0.06332092104690215
241.006     0.10540236456163465
257.996     0.1798617558773417
269.9961    0.011139874903255803
274.9988    1.0
286.9988    0.0196623539706909
305.0095    0.39668702918409


