PRECURSORMZ: 230.11669919199997
COMPOUNDNAME: Training-246
FORMULA: C9H16ClN5
SMILES: CCNc1nc(Cl)nc(NC(C)(C)C)n1
INCHIKEY: FZXISNSWEXTPMF-UHFFFAOYSA-N
PRECURSORTYPE: [M+H]+
IONMODE: positive
CHARGE: 1
PARENTMASS: 229.10942319199998
NUM PEAKS: 15
57.07       0.011212869390471147
61.9792     0.0020903623288414204
68.0244     0.018642852786469405
71.0604     0.012874646250482607
79.0058     0.0737692367662329
90.0105     0.002241460342572094
96.0556     0.07956976381744568
104.001     0.031161447520709325
110.0461    0.007006677854922725
128.0565    0.0010552999163264043
132.0322    0.07248337180469921
138.0773    0.020669469381862576
146.0227    0.05574393579477856
174.0541    1.0
230.1167    0.585908177725433


