PRECURSORMZ: 360.1008097999999
COMPOUNDNAME: Training-041
FORMULA: C19H20ClNO4
SMILES: CC(C)(Oc1ccc(CCNC(=O)c2ccc(Cl)cc2)cc1)C(O)=O
INCHIKEY: IIBYAHWJQTYFKB-UHFFFAOYSA-N
PRECURSORTYPE: [M-H]-
IONMODE: negative
CHARGE: -1
PARENTMASS: 361.1080857999999
NUM PEAKS: 7
85.0278     0.24167647873942505
93.0331     0.0014678290107121156
119.0495    0.009078052068957005
154.0065    0.41049219507183754
162.056     0.00901295790889565
274.064     1.0
360.1008    0.25345405202435967


