PRECURSORMZ: 215.998843268
COMPOUNDNAME: Training-029
FORMULA: C9H9Cl2NO
SMILES: CCC(=O)Nc1ccc(Cl)c(Cl)c1
INCHIKEY: LFULEKSKNZEWOE-UHFFFAOYSA-N
PRECURSORTYPE: [M-H]-
IONMODE: negative
CHARGE: -1
PARENTMASS: 217.006119268
NUM PEAKS: 5
123.9954    0.013708158797023227
159.9726    0.6619232355886308
160.9565    0.0038380075861038517
185.952     0.0011177232120622722
215.9987    1.0


