PRECURSORMZ: 151.08658893999998
COMPOUNDNAME: Training-067
FORMULA: C8H10N2O
SMILES: CC(=O)NC1=CC=C(N)C=C1
INCHIKEY: CHMBIJAOCISYEW-UHFFFAOYSA-N
PRECURSORTYPE: [M+H]+
IONMODE: positive
CHARGE: 1
PARENTMASS: 150.07931294
NUM PEAKS: 11
65.0386     0.0032606628677982856
82.0651     0.003447748586155826
92.0494     0.07942178229520146
93.0572     0.003974239806902244
106.065     0.006523450566401553
108.0681    0.020611589889625772
109.0759    0.7442845539073332
110.0599    0.03285550753461784
133.0759    0.051182137008875674
134.06      0.0019237847872631204
151.0865    1.0


