PRECURSORMZ: 362.1153617999999
COMPOUNDNAME: Training-255
FORMULA: C19H20ClNO4
SMILES: CC(C)(Oc1ccc(CCNC(=O)c2ccc(Cl)cc2)cc1)C(O)=O
INCHIKEY: IIBYAHWJQTYFKB-UHFFFAOYSA-N
PRECURSORTYPE: [M+H]+
IONMODE: positive
CHARGE: 1
PARENTMASS: 361.1080857999999
NUM PEAKS: 38
59.0493     0.024614091256930246
69.0335     0.014207736048054899
75.0231     0.0016641036919082248
77.0387     0.0026162033106653815
86.9996     0.0031198477500037295
87.044      0.027353888730436617
91.0541     0.014194286623013993
93.0334     0.00201708117335428
93.0698     0.032723571330128515
95.0491     0.004633592018725719
103.0542    0.016620713188847128
105.0446    0.001600567856572715
105.0698    0.003463514305122966
107.049     0.004058936285043092
110.9993    0.004666871170288396
119.0491    0.002378620921978473
119.0855    0.010164543870090215
120.0569    0.009318450490419055
121.0647    0.5464553855923023
129.0101    0.008952250408172309
133.0646    0.00689295766118214
133.1011    0.002529936346717021
138.9944    1.0
143.0855    0.002316980391030518
146.0725    0.001924876423927436
156.0211    0.0031490816373559655
161.096     0.11766728719099302
171.0802    0.003995737207168515
178.1225    0.0037033176231803127
182.0366    0.0039012976127736723
189.0909    0.01168290115940306
207.1016    0.0188071917144083
276.0785    0.21921332677853025
299.0836    0.0020837132291466978
316.1098    0.38753138523873487
326.0941    0.002979439370632033
344.1047    0.03459357020352174
362.1152    0.28079471643685894


