PRECURSORMZ: 345.07672379599995
COMPOUNDNAME: Training-303
FORMULA: C15H18Cl2N2O3
SMILES: CC(C)OC1=CC(N2N=C(OC2=O)C(C)(C)C)=C(Cl)C=C1Cl
INCHIKEY: CHNUNORXWHYHNE-UHFFFAOYSA-N
PRECURSORTYPE: [M+H]+
IONMODE: positive
CHARGE: 1
PARENTMASS: 344.06944779599996
NUM PEAKS: 50
53.0026     0.0036416346913280225
57.0701     0.07379758447754732
84.0808     0.004061322877191916
84.9839     0.0011398808732732367
94.0288     0.0012743066366943353
111.9949    0.0032070129464523037
112.9788    0.01298079889616258
120.9606    0.0035140023029838164
122.0236    0.00131458037470477
127.9898    0.00945024923676876
128.9976    0.02223665081031615
129.9816    0.0030969721363639817
130.0053    0.00526201187375168
139.0057    0.003216494006166605
139.9896    0.006348228050456799
140.9737    0.03252779528695217
147.9715    0.023136615781419685
148.0027    0.010584600480721766
148.9556    0.10049259978963676
155.0005    0.004506102052750291
155.9847    0.037172321998146976
156.9922    0.001032130231551448
163.9664    0.005814690017998588
173.9508    0.052978013909034984
175.9665    0.03466351374955383
176.9505    0.7619021117962894
182.9956    0.012963278514850733
183.9797    0.1388944870782293
184.003     0.009633421174540732
184.9875    0.6648300623875089
191.9614    0.005789231177426582
195.0686    0.005382043988319904
201.9457    0.06177867409456473
202.9534    0.009139130457483083
202.9777    0.004993362071584255
208.9766    0.00396696912710648
218.9726    0.011700594779270488
219.9563    0.8435467327247735
223.063     0.0031438849894058945
224.071     0.0012789997019221275
233.9715    0.001339873089074022
239.058     0.0017256596634188204
246.9674    0.00183074635281788
259.0397    0.009703265376641328
285.0638    0.0033862927846169035
303.0299    1.0
307.0624    0.0017510591732041282
321.0402    0.0013696452778389546
335.0557    0.011300907001602406
345.0769    0.5414018535887057


