PRECURSORMZ: 330.080393936
COMPOUNDNAME: Training-272
FORMULA: C17H13ClFN3O
SMILES: FC1=CC=C(C=C1)C1(CN2C=NC=N2)OC1C1=CC=CC=C1Cl
INCHIKEY: ZMYFCFLJBGAQRS-UHFFFAOYSA-N
PRECURSORTYPE: [M+H]+
IONMODE: positive
CHARGE: 1
PARENTMASS: 329.073117936
NUM PEAKS: 23
70.04       0.09991540850944157
75.023      0.005500074742013372
77.0386     0.006255783400812281
91.0542     0.013626692304866338
95.029      0.002337097644106402
95.0491     0.0038998882195185602
101.0385    0.007409376496423785
109.0448    0.0036736138998609037
113.0153    0.009757406743503144
113.0397    0.005841729273659647
119.0491    0.010811929062861833
121.0448    1.0
123.0241    0.26942177551552987
129.0448    0.041277131984261105
138.9944    0.013647005663924438
141.0101    0.0927692248493125
190.0776    0.0017110497515778166
196.0686    0.0014128271388250556
197.0761    0.0011873794151627476
231.0373    0.001291630668041582
261.0483    0.002931022701936452
274.0429    0.0011140122906273516
330.0805    0.5593010734980023


