PRECURSORMZ: 253.087018308
COMPOUNDNAME: Training-030
FORMULA: C16H14O3
SMILES: CC(C(O)=O)c1cccc(c1)C(=O)c1ccccc1
INCHIKEY: DKYWVDODHFEZIM-UHFFFAOYSA-N
PRECURSORTYPE: [M-H]-
IONMODE: negative
CHARGE: -1
PARENTMASS: 254.094294308
NUM PEAKS: 7
161.0126    0.007976477095636248
185.0612    0.015605814052232828
197.0608    1.0
209.0974    0.038177382299410374
223.0769    0.011075204898749837
241.0873    0.019879941152574115
253.0872    0.03580822257363387


