PRECURSORMZ: 323.23457223
COMPOUNDNAME: Training-312
FORMULA: C16H35O4P
SMILES: CCCCC(CC)COP(O)(=O)OCC(CC)CCCC
INCHIKEY: SEGLCEQVOFDUPX-UHFFFAOYSA-N
PRECURSORTYPE: [M+H]+
IONMODE: positive
CHARGE: 1
PARENTMASS: 322.22729623000004
NUM PEAKS: 6
57.0701     0.08564885255704484
71.0856     0.12870414458646837
98.9842     1.0
113.1326    0.006131266023211719
116.9948    0.005635820838581979
131.0103    0.00941003367177555


