PRECURSORMZ: 306.081080904
COMPOUNDNAME: Training-199
FORMULA: C17H17Cl2N
SMILES: CN[C@H]1CC[C@@H](C2=CC=C(Cl)C(Cl)=C2)C2=C1C=CC=C2
INCHIKEY: VGKDLMBJGBXTGI-SJCJKPOMSA-N
PRECURSORTYPE: [M+H]+
IONMODE: positive
CHARGE: 1
PARENTMASS: 305.073804904
NUM PEAKS: 12
91.0542     0.06791677359251116
115.0542    0.007599953317398878
122.9996    0.004049018174226876
128.062     0.005942912632345534
129.0698    0.20519554081348462
158.9762    1.0
162.023     0.003797531744649779
196.9918    0.013801607453198347
205.1015    0.002739365728717568
240.0698    0.009063702239321807
275.0388    0.7101431359259774
306.0811    0.03914107471236447


