PRECURSORMZ: 179.127785056
COMPOUNDNAME: Training-112
FORMULA: C8H18O4
SMILES: COCCOCCOCCOC
INCHIKEY: YFNKIDBQEZZDLK-UHFFFAOYSA-N
PRECURSORTYPE: [M+H]+
IONMODE: positive
CHARGE: 1
PARENTMASS: 178.120509056
NUM PEAKS: 7
59.0493     1.0
73.0284     0.0018163816185916874
89.0597     0.014400487954474267
103.0754    0.5831843147563893
133.0861    0.005071146563640018
147.1015    0.00598937756346017
179.1277    0.003354984632677534


