PRECURSORMZ: 289.216206136
COMPOUNDNAME: Training-256
FORMULA: C19H28O2
SMILES: CC12CCC3C(CCC4=CC(=O)CCC34C)C1CCC2O
INCHIKEY: MUMGGOZAMZWBJJ-UHFFFAOYSA-N
PRECURSORTYPE: [M+H]+
IONMODE: positive
CHARGE: 1
PARENTMASS: 288.208930136
NUM PEAKS: 62
67.0543     0.007625681027620378
69.07       0.0058537080784901155
79.0542     0.02412934674191521
81.0699     0.03204728239021402
83.0492     0.029633360148702412
85.0648     0.0010549771398853964
91.0542     0.008113084883131054
93.0699     0.02286162137915247
95.0492     0.002143053488360963
95.0855     0.02307455779317738
97.0648     0.6024245400857613
105.0699    0.013119707217447069
107.0493    0.0017742343586485572
107.0856    0.014854662593960974
109.0648    0.47937579563727556
117.07      0.00233166713128693
119.0856    0.01564793314772452
121.0648    0.006067965569444976
121.1012    0.012830216887929605
123.0805    0.04099560009096986
129.07      0.0010730858642176194
131.0855    0.008645247074288194
133.1013    0.011214521108117334
135.0806    0.001037618687545465
135.1168    0.0061376648404896815
137.096     0.0018906692186881837
143.0855    0.006551664178056842
145.1011    0.012975024367637863
147.1168    0.012742335360912235
149.0961    0.002812266194309379
149.1326    0.004156054430762408
155.0856    0.00222175851591115
157.1013    0.010190482717522048
159.1169    0.013620048902778311
161.0963    0.0020950485438442005
161.1324    0.008104307822490333
163.1118    0.006967941750178669
163.1481    0.0028261861077344716
169.1012    0.002167778814033845
171.1168    0.00984284443915349
173.1325    0.0061519611362099115
175.1119    0.003310473592619357
175.1482    0.011789209513428921
177.1274    0.005603498600555789
183.1165    0.0038896231251675027
185.1326    0.004947192566953176
187.1482    0.012188008988507727
189.1273    0.0032450391567202036
189.1641    0.007421177695714805
197.1325    0.008339395331623213
199.1482    0.009077002433573261
201.1638    0.006230681742497479
211.1481    0.007562951060530649
213.1638    0.01126497316070198
215.1431    0.002141377216218717
219.1744    0.0022782382935634337
225.1639    0.0030712670653228174
227.1797    0.003783672755385607
243.2107    0.002155978232042128
253.1951    0.039290687997921375
271.2058    0.03711471227542689
289.2163    1.0


