PRECURSORMZ: 207.01213911600001
COMPOUNDNAME: Training-011
FORMULA: C10H8O3S
SMILES: OS(=O)(=O)C1=CC2=CC=CC=C2C=C1
INCHIKEY: KVBGVZZKJNLNJU-UHFFFAOYSA-N
PRECURSORTYPE: [M-H]-
IONMODE: negative
CHARGE: -1
PARENTMASS: 208.019415116
NUM PEAKS: 3
118.9924    0.002173152732637982
143.0502    0.2453515609506641
207.0122    1.0


