PRECURSORMZ: 183.07807158999998
COMPOUNDNAME: Training-160
FORMULA: C6H15O4P
SMILES: CCOP(=O)(OCC)OCC
INCHIKEY: DQWPFSLDHJDLRL-UHFFFAOYSA-N
PRECURSORTYPE: [M+H]+
IONMODE: positive
CHARGE: 1
PARENTMASS: 182.07079559
NUM PEAKS: 8
80.9734     0.0019755783849620904
81.9816     0.0011203272044712502
98.9841     1.0
116.9947    0.0033175146227177464
127.0155    0.3780956555344791
131.0102    0.0018164144801145058
155.0467    0.15194899692335692
183.0781    0.03367271218811989


