PRECURSORMZ: 157.07602425599998
COMPOUNDNAME: Training-091
FORMULA: C10H8N2
SMILES: C1=CC=C(N=C1)C1=CC=CC=N1
INCHIKEY: ROFVEXUMMXZLPA-UHFFFAOYSA-N
PRECURSORTYPE: [M+H]+
IONMODE: positive
CHARGE: 1
PARENTMASS: 156.068748256
NUM PEAKS: 5
78.0336     0.002532288059218339
96.0443     0.003119901586096064
130.065     0.014725539225733046
156.0684    0.001566324932767379
157.0759    1.0


