PRECURSORMZ: 271.041485652
COMPOUNDNAME: Training-129
FORMULA: C10H11ClN4OS
SMILES: NC(=O)N=C1SCCN1CC1=CN=C(Cl)C=C1
INCHIKEY: LEZHOZPJYAQQNU-UHFFFAOYSA-N
PRECURSORTYPE: [M+H]+
IONMODE: positive
CHARGE: 1
PARENTMASS: 270.034209652
NUM PEAKS: 23
61.0108     0.0017709919675612383
72.9842     0.0013298512594114116
90.0338     0.01578234510555568
91.0417     0.0016670211195042503
98.9995     0.0072908712100376956
101.0168    0.013653985078896202
103.0324    0.010457911565921952
126.0105    1.0
127.0183    0.001906781931191724
128.0259    0.00214297100123368
129.0117    0.005516603445138712
132.0556    0.008922968349980881
143.0372    0.0022552231874202033
144.0211    0.005310251174056991
165.0481    0.00399779429645925
168.0323    0.006002209785531201
186.0139    0.039347096852673104
192.0589    0.020816676686252394
211.0089    0.0036321653091837334
228.0356    0.33186074677362026
229.0192    0.001316998091975613
254.0149    0.4674059695640669
271.0414    0.12684608018192614


