PRECURSORMZ: 103.032445192
COMPOUNDNAME: Training-079
FORMULA: C3H6N2S
SMILES: S=C1NCCN1
INCHIKEY: PDQAZBWRQCGBEV-UHFFFAOYSA-N
PRECURSORTYPE: [M+H]+
IONMODE: positive
CHARGE: 1
PARENTMASS: 102.02516919199999
NUM PEAKS: 7
58.9951     0.0014605763413474881
60.0558     0.055266992819247976
69.0448     0.004177760838769433
76.0216     0.004529304067586197
86.0059     0.024960631097607544
86.0349     0.010871520465219189
103.0324    1.0


