PRECURSORMZ: 174.05409893599997
COMPOUNDNAME: Training-111
FORMULA: C5H8ClN5
SMILES: CCNc1nc(N)nc(Cl)n1
INCHIKEY: IVENSCMCQBJAKW-UHFFFAOYSA-N
PRECURSORTYPE: [M+H]+
IONMODE: positive
CHARGE: 1
PARENTMASS: 173.04682293599998
NUM PEAKS: 14
61.9793     0.0027754557689201294
68.0244     0.04085889073366719
71.0604     0.02388866035336833
79.0058     0.10313614694830307
90.0105     0.004730024135330269
96.0556     0.11138865485532053
104.001     0.05920255269961295
110.0461    0.009693313945017542
128.0566    0.0010264786532245996
132.0323    0.10763098659059128
138.0774    0.02345093327712129
146.0228    0.05904745277094462
160.0131    0.0018884144806703483
174.0542    1.0


