PRECURSORMZ: 132.08077528799998
COMPOUNDNAME: Training-180
FORMULA: C9H9N
SMILES: CC1=CC2=CC=CC=C2N1
INCHIKEY: BHNHHSOHWZKFOX-UHFFFAOYSA-N
PRECURSORTYPE: [M+H]+
IONMODE: positive
CHARGE: 1
PARENTMASS: 131.073499288
NUM PEAKS: 7
91.0542     0.0016868123462587755
105.0698    0.008697768395245328
115.054     0.0026817756416740645
117.0572    0.0884479795772161
130.0652    0.0013757720077943604
131.0729    0.0013372955609374762
132.0807    1.0


