PRECURSORMZ: 296.102967276
COMPOUNDNAME: Training-209
FORMULA: C16H13N3O3
SMILES: COC(=O)Nc1nc2ccc(cc2[nH]1)C(=O)c1ccccc1
INCHIKEY: OPXLLQIJSORQAM-UHFFFAOYSA-N
PRECURSORTYPE: [M+H]+
IONMODE: positive
CHARGE: 1
PARENTMASS: 295.095691276
NUM PEAKS: 13
53.0388     0.003683103961216166
77.0386     0.008464692845877033
95.0491     0.01378843755468589
105.0335    0.16490774817251946
159.0432    0.0014100162587599903
160.0507    0.0015248630326069963
186.0298    0.01063631834481731
186.0411    0.001140931422091813
208.087     0.0013688282423449647
236.0816    0.002446400451042859
237.09      0.0011087171040077212
264.0768    1.0
296.103     0.704970489762236


