PRECURSORMZ: 311.080851928
COMPOUNDNAME: Training-161
FORMULA: C12H14N4O4S
SMILES: COC1=CC(NS(=O)(=O)C2=CC=C(N)C=C2)=NC(OC)=N1
INCHIKEY: ZZORFUFYDOWNEF-UHFFFAOYSA-N
PRECURSORTYPE: [M+H]+
IONMODE: positive
CHARGE: 1
PARENTMASS: 310.073575928
NUM PEAKS: 43
56.0496     0.0016729117575755117
57.0449     0.0013053412554067327
58.0289     0.0014075074696919395
65.0386     0.02583207057295678
67.0291     0.003224523890914313
68.0495     0.019192695808524323
72.0445     0.0019396166029091624
78.0338     0.002603158115761061
79.0178     0.002948385475664215
80.0494     0.0057033800509992405
81.0448     0.0011534042652777824
82.0287     0.0026672214383455344
89.0709     0.003149115106507323
92.0494     0.2148162982526739
93.0573     0.010385583403988503
96.0444     0.0016727623202640472
99.0553     0.0045515697837104135
108.0443    0.2862034257335325
109.0521    0.0016414067495961026
110.06      0.02208492817662425
120.0555    0.004465829899837514
124.0504    0.0030067882940265503
125.0583    0.006833830745236084
126.0661    0.005195990566140266
127.0501    0.022102673178100146
140.0455    0.0030606889737507656
141.0532    0.009929853944862451
154.061     0.036390006820862304
155.0688    0.02961814184176614
156.0113    0.3191004649112498
156.0767    0.4432907682737016
157.048     0.002735059637985668
170.0559    0.0019366034033016335
172.0737    0.001472221976682128
173.0583    0.04003606710267825
201.0766    0.0014209414311522563
218.023     0.05184199509425383
229.072     0.0015657407518772587
230.0799    0.019217301341117453
236.0336    0.0025685955298210216
245.1033    0.09266430170498371
247.1189    0.0014374800659683314
311.0808    1.0


