PRECURSORMZ: 181.07602425599998
COMPOUNDNAME: Training-109
FORMULA: C12H8N2
SMILES: C1=CN=C2C=CC3=NC=CC=C3C2=C1
INCHIKEY: DATYUTWESAKQQM-UHFFFAOYSA-N
PRECURSORTYPE: [M+H]+
IONMODE: positive
CHARGE: 1
PARENTMASS: 180.068748256
NUM PEAKS: 4
111.0231    0.0011147580016870945
121.0075    0.0018401137800464285
139.018     0.0010741086953480832
181.0759    1.0


