PRECURSORMZ: 265.191054008
COMPOUNDNAME: Training-149
FORMULA: C15H24N2O2
SMILES: CCCCNc1ccc(cc1)C(=O)OCCN(C)C
INCHIKEY: GKCBAIGFKIBETG-UHFFFAOYSA-N
PRECURSORTYPE: [M+H]+
IONMODE: positive
CHARGE: 1
PARENTMASS: 264.183778008
NUM PEAKS: 11
65.0386     0.001153391823615968
70.0652     0.0073109351493500134
72.0808     0.2692790796335863
92.0494     0.009171870997534184
105.057     0.002878881253184807
106.0651    0.003835213288761752
120.0444    0.01298844616575333
148.112     0.003955034736940209
176.107     1.0
220.1332    0.07266629369063839
265.1911    0.13145725048370616


