PRECURSORMZ: 271.06009942
COMPOUNDNAME: Training-210
FORMULA: C15H10O5
SMILES: OC1=CC=C(C=C1)C1=COC2=CC(O)=CC(O)=C2C1=O
INCHIKEY: TZBJGXHYKVUXJN-UHFFFAOYSA-N
PRECURSORTYPE: [M+H]+
IONMODE: positive
CHARGE: 1
PARENTMASS: 270.05282342
NUM PEAKS: 41
67.0179     0.0013437725382136779
68.9972     0.004913374197458208
91.0542     0.015725532340768542
95.0128     0.001030503483547291
107.0492    0.001197446881123845
111.0077    0.002837228446198449
119.0492    0.007921575296450722
121.0285    0.003371782535862033
131.0491    0.0032202181546775416
131.0855    0.0011210689561476355
133.0285    0.0013141478199984648
135.0441    0.0013698484656651515
137.0233    0.0013253348878781504
141.0698    0.004397954223894552
145.0284    0.015162180845601931
145.065     0.0022942066897710532
147.0441    0.0015477137756663556
147.0805    0.0017235014576765372
149.0233    0.024316991394175473
150.031     0.001122742966305014
153.0182    0.06655083457921782
159.0441    0.00914417871483208
159.0805    0.001917377172516259
165.0183    0.0065831356367491555
169.0648    0.010579326038249069
173.0598    0.0021014130584201575
175.0755    0.0015386791054621415
183.0289    0.0010618638276783637
183.0439    0.0015963888402424399
187.0386    0.00266983573820331
187.0754    0.005534469350687876
197.0597    0.01172754954377754
200.0471    0.0015524014194941516
201.0546    0.0020714248764610965
213.0547    0.0012074397109880309
215.0702    0.05561872786194259
225.0546    0.00432047898456787
227.0705    0.0017458105161179624
243.0653    0.04046229320505292
253.0495    0.01792574938331626
271.0601    1.0


