PRECURSORMZ: 330.13696983599993
COMPOUNDNAME: Training-273
FORMULA: C15H23NO5S
SMILES: CCC1=CC=CC(C)=C1N(C(C)COC)C(=O)CS(O)(=O)=O
INCHIKEY: CIGKZVUEZXGYSV-UHFFFAOYSA-N
PRECURSORTYPE: [M+H]+
IONMODE: positive
CHARGE: 1
PARENTMASS: 329.12969383599994
NUM PEAKS: 40
73.0649     0.040991005245562435
82.0652     0.004899128765528132
108.0809    0.0021788687490315703
117.0701    0.001203175940374475
120.0808    0.0033287614979003667
131.0732    0.0015190845190563467
132.0808    0.013497289277547616
133.0888    0.005213958865806571
133.1012    0.001425058810087632
134.0965    0.015380857922967003
135.1043    0.0014376679589495414
136.1121    0.01767599691511157
143.0856    0.006263675399619045
144.0808    0.008409629770347196
145.0887    0.005926128778049242
145.1012    0.00205238108467244
146.0965    0.030892109020520534
148.0757    0.0019366635311720854
148.1121    0.006023905928902009
158.0965    0.008247889801712574
158.1091    0.0058230081457645
159.1044    0.008310108957132415
160.1121    0.1880437878861393
162.0914    0.001565625386393623
174.1279    0.08425733091415057
175.1357    0.03244208301965344
176.1435    0.07662402707063941
188.1071    0.012590501701305795
188.1434    0.00259240041022286
202.1227    0.31607255141872
216.1389    0.002154445248317085
217.1462    0.010297954970176281
218.1542    0.003871962457017378
232.1331    0.0029393256365027915
234.1491    0.010140480004570206
240.069     0.0018378837133229305
258.0796    0.007521711897871568
280.0998    0.003238472557640147
298.111     1.0
330.1372    0.2001736986067135


