PRECURSORMZ: 128.02615287199998
COMPOUNDNAME: Training-092
FORMULA: C6H6ClN
SMILES: C1=CC(=CC=C1N)Cl
INCHIKEY: QSNSCYSYFYORTR-UHFFFAOYSA-N
PRECURSORTYPE: [M+H]+
IONMODE: positive
CHARGE: 1
PARENTMASS: 127.01887687199998
NUM PEAKS: 8
75.0228     0.0011791616896281078
86.9995     0.0019443884323526645
92.0494     0.005110497602883412
93.0572     0.4293739465707941
110.9994    0.0024701829802009564
127.0181    0.0015021502049891852
128.026     1.0
139.0056    0.00727807739223374


