PRECURSORMZ: 320.15241600400003
COMPOUNDNAME: Training-286
FORMULA: C17H22ClN3O
SMILES: CC1(C)CCC(Cc2ccc(Cl)cc2)C1(O)Cn1cncn1
INCHIKEY: XWPZUHJBOLQNMN-UHFFFAOYSA-N
PRECURSORTYPE: [M+H]+
IONMODE: positive
CHARGE: 1
PARENTMASS: 319.14514000400004
NUM PEAKS: 18
59.0493     0.0019123027914175195
67.0543     0.0011736134251679586
69.0699     0.0023333519742830887
70.04       1.0
81.07       0.0030692470050299172
95.0855     0.010836706705058763
107.0855    0.004184476758728177
109.1012    0.00109204283525046
125.0152    0.06804081236322856
139.0308    0.005481084054933584
142.0776    0.0014888913947703794
151.0307    0.002920390623167226
163.0309    0.004344915499913927
165.0466    0.0010011940189149746
177.0465    0.013149795681285686
191.0621    0.004259230976979611
233.1093    0.00634940916311993
320.1525    0.7497733348620564


