PRECURSORMZ: 136.075689908
COMPOUNDNAME: Training-085
FORMULA: C8H9NO
SMILES: CC(=O)C1=CC(N)=CC=C1
INCHIKEY: CKQHAYFOPRIUOM-UHFFFAOYSA-N
PRECURSORTYPE: [M+H]+
IONMODE: positive
CHARGE: 1
PARENTMASS: 135.068413908
NUM PEAKS: 10
53.0388     0.0013333167394123373
65.0387     0.0016058675604129415
77.0385     0.004168356378285496
91.0542     0.07785140062895966
93.0571     0.0024977248810290945
94.0651     0.7051993297595957
95.0491     0.003668752784342515
119.0491    0.02191655398393285
136.0756    1.0
147.0552    0.001935544686986481


