PRECURSORMZ: 406.071972764
COMPOUNDNAME: Training-292
FORMULA: C19H17Cl2N3O3
SMILES: CC1COC(CN2C=NC=N2)(O1)C1=C(Cl)C=C(OC2=CC=C(Cl)C=C2)C=C1
INCHIKEY: BQYJATMQXGBDHF-UHFFFAOYSA-N
PRECURSORTYPE: [M+H]+
IONMODE: positive
CHARGE: 1
PARENTMASS: 405.064696764
NUM PEAKS: 28
70.0401     0.003931758128384944
86.9995     0.0010628159516639637
126.9946    0.001956991948837056
129.0101    0.0024461468745248143
129.0699    0.008691595351618245
139.0057    0.0057208199551186285
139.0309    0.003360414455603478
141.01      0.007473204104650145
152.0621    0.022407304624458186
153.0699    0.00994317195589767
163.031     0.001995730496828325
164.0386    0.0122699720215128
181.0647    0.011827480950150578
187.0309    0.02286190721093213
188.0387    0.06826688211558445
215.0255    0.007641399720703138
216.0333    0.005779021358523806
223.0076    0.03963547736172604
251.0025    1.0
256.0649    0.0017799393714412026
261.9946    0.004175694385214724
263.0036    0.0034274007279996603
264.9818    0.040585155458283874
273.0312    0.0010941927614176816
291.0338    0.02369860134182722
323.0237    0.014880625324623543
337.0393    0.08840113221593146
406.0721    0.720296814194607


