PRECURSORMZ: 327.00994619600004
COMPOUNDNAME: Training-016
FORMULA: C14H13ClO5S
SMILES: CS(=O)(=O)c1ccc(C(=O)C2C(=O)CCCC2=O)c(Cl)c1
INCHIKEY: PQTBTIFWAXVEPB-UHFFFAOYSA-N
PRECURSORTYPE: [M-H]-
IONMODE: negative
CHARGE: -1
PARENTMASS: 328.01722219600003
NUM PEAKS: 15
122.07      0.0037160767375125333
168.0582    0.004013644425059666
170.0371    0.005086320114386378
172.0534    0.004513635808703297
212.0479    0.13138402226563572
215.0351    0.06284260635314294
216.0429    0.022194399077103286
221.0278    0.00410162834572511
227.0347    0.005249545456862272
237.0224    0.008367816962377591
247.0432    0.015333716336441776
249.0229    0.05885165571175837
263.0391    0.0037019993102060623
291.0334    1.0
327.0102    0.055632051001062846


