PRECURSORMZ: 112.055703412
COMPOUNDNAME: Training-073
FORMULA: C6H6FN
SMILES: NC1=CC=C(F)C=C1
INCHIKEY: KRZCOLNOCZKSDF-UHFFFAOYSA-N
PRECURSORTYPE: [M+H]+
IONMODE: positive
CHARGE: 1
PARENTMASS: 111.048427412
NUM PEAKS: 12
50.0153     0.0013632765806400554
51.0231     0.0014720387647849198
65.0386     0.01294838604364575
71.0292     0.003683252417068183
75.0228     0.0020107577885215017
79.0178     0.0011552248569451232
85.0448     0.004750590028735032
92.0494     0.14494722986583944
95.029      0.0026599161198615938
111.0478    0.009681651413102394
112.0556    1.0
123.0353    0.01886371004311971


