PRECURSORMZ: 122.060039844
COMPOUNDNAME: Training-097
FORMULA: C7H7NO
SMILES: NC(=O)C1=CC=CC=C1
INCHIKEY: KXDAEFPNCMNJSK-UHFFFAOYSA-N
PRECURSORTYPE: [M+H]+
IONMODE: positive
CHARGE: 1
PARENTMASS: 121.052763844
NUM PEAKS: 10
51.0231     0.002934789242025878
53.0388     0.003659847437453009
77.0385     0.018105039899580313
79.0542     0.7221153047217919
81.0335     0.001865907170083467
94.0651     0.0017276914493178832
95.0491     0.034278288149163276
104.0495    0.004474618839054741
105.0335    0.9999418071029946
122.06      1.0


