PRECURSORMZ: 198.10257335199998
COMPOUNDNAME: Training-229
FORMULA: C12H11N3
SMILES: C1=CC=C(C=C1)N=NC2=CC=C(C=C2)N
INCHIKEY: QPQKUYVSJWQSDY-UHFFFAOYSA-N
PRECURSORTYPE: [M+H]+
IONMODE: positive
CHARGE: 1
PARENTMASS: 197.095297352
NUM PEAKS: 28
50.0153     0.009364688212854494
51.0231     0.009400345127887485
53.0388     0.029171883604342048
55.018      0.0035367961015392597
65.0386     0.002793015451135529
77.0386     0.20540142663251082
79.0542     0.003137333721233769
81.0335     0.029664689768424422
81.0699     0.004555363807613002
91.0541     0.001501680705864247
92.0494     0.009992172369052614
93.0573     0.020679677976161184
94.0413     0.03620468581844272
95.0491     0.5295050808534317
105.0447    0.223660519291583
106.0416    0.0013077238403763117
106.0524    0.003307894523522488
107.0491    0.0011402783966989272
109.0648    0.008521810931305909
110.0601    0.0012692039249698611
128.062     0.0016806234067680975
152.062     0.0034732785302263496
153.0699    0.00454832347300408
169.0886    0.0024289664486577857
170.0961    0.0016926875112218875
181.0756    0.001494598183707961
196.0868    0.0010890887937724184
198.1025    1.0


