PRECURSORMZ: 319.11871235999996
COMPOUNDNAME: Training-031
FORMULA: C17H20O6
SMILES: COc1c(C)c2COC(=O)c2c(O)c1C\C=C(/C)CCC(O)=O
INCHIKEY: HPNSFSBZBAHARI-RUDMXATFSA-N
PRECURSORTYPE: [M-H]-
IONMODE: negative
CHARGE: -1
PARENTMASS: 320.12598835999995
NUM PEAKS: 64
133.0658    0.005463032174460848
135.045     0.012318996216881392
137.0246    0.0014334069937100347
137.0607    0.005030797000923746
147.0451    0.00839858859319561
148.053     0.008417063529626812
149.0609    0.007636252656180127
160.0529    0.004659764134468813
161.0608    0.015970472742940518
161.0973    0.00781891298174376
163.0401    0.006893468816200496
163.0766    0.0011639862776267214
164.048     0.00708118853248292
171.0815    0.0016435838765378101
171.1183    0.0013750444736764797
173.0609    0.015942107513684835
173.0972    0.003806391805745509
174.0686    0.002206514536771978
177.0194    0.005331651221924462
177.0555    0.0015613606170498202
178.0272    0.005296692464119127
179.035     0.09647380051638425
183.0817    0.0044608811173746
186.0682    0.0010478487797075998
187.0764    0.011087507874696846
188.0847    0.002154060079448755
189.0919    0.004545650392837208
191.035     0.31869095609428094
192.0428    0.08903313411302352
193.0508    0.0020554182810475223
199.1129    0.016214465940508096
200.0845    0.0017894248941608105
201.0923    0.013399910563028583
203.0351    0.026969979860360815
204.0427    0.0039644732847849435
205.0507    0.1315654407708553
206.0587    0.0010407329914708466
207.0663    0.03560838357362719
210.0695    0.0010738638403713268
215.0714    0.0015767346365888608
215.108     0.01997516002363225
217.0504    0.0011953871413136789
217.0871    0.0017373947728333567
224.0328    0.01729900346323455
225.0921    0.0043221885292187975
227.0712    0.001703088839636899
228.08      0.0015164136427286761
230.0587    0.0010100175936232092
231.0664    0.017035131756326687
231.1032    0.0011455439824259615
232.0745    0.004268689552521372
233.0823    0.013165122192446168
241.0872    0.003750542660456129
243.0666    0.008194156566925946
243.1028    0.03370442060183901
245.082     0.034273226683553065
258.1266    0.0010604809358893592
259.098     0.004740290049973723
269.0819    0.01919754799076906
275.1291    0.1744429937230914
285.0771    0.005553742153864232
287.0925    0.07514722826991686
301.1087    0.00473095465806679
319.1187    1.0


