PRECURSORMZ: 377.090766504
COMPOUNDNAME: Training-304
FORMULA: C19H12F4N2O2
SMILES: FC1=CC=C(NC(=O)C2=NC(OC3=CC=CC(=C3)C(F)(F)F)=CC=C2)C=C1
INCHIKEY: CWKFPEBMTGKLKX-UHFFFAOYSA-N
PRECURSORTYPE: [M+H]+
IONMODE: positive
CHARGE: 1
PARENTMASS: 376.083490504
NUM PEAKS: 31
53.0024     0.0022045832147116126
73.0084     0.007146014497940852
101.0197    0.0013860009275377559
113.0397    0.003799246399043547
123.0353    0.004783684441891942
141.0574    0.0019697591476416205
143.0304    0.0013683455561623876
145.0259    0.02749247754440951
163.0365    0.0068749335503220915
173.0322    0.028524829765606607
183.0416    0.014951636662901283
188.0507    0.0037131962664727724
190.0463    0.03273926490051148
196.038     0.0010098341416039408
210.0525    0.037799660176640555
218.0412    0.011308045333877213
236.0518    0.03525409183327884
238.0474    0.7170684197568359
243.0566    0.001151213532475439
256.058     1.0
257.0641    0.00350473790604127
270.0736    0.03037413016931554
284.053     0.10538331430691783
289.077     0.008412367866355703
298.0688    0.003162714226133799
309.0834    0.010224636876713758
329.09      0.006024062293829973
337.0785    0.033042329706344645
357.0846    0.02681135367704647
359.0803    0.4530274121203743
377.0909    0.884540208128019


