PRECURSORMZ: 376.038085792
COMPOUNDNAME: Training-266
FORMULA: C15H16Cl3N3O2
SMILES: CCCN(CCOc1c(Cl)cc(Cl)cc1Cl)C(=O)n1ccnc1
INCHIKEY: TVLSRXXIMLFWEO-UHFFFAOYSA-N
PRECURSORTYPE: [M+H]+
IONMODE: positive
CHARGE: 1
PARENTMASS: 375.030809792
NUM PEAKS: 48
56.0497     0.03333050768331097
57.0575     0.008744283020130346
59.0493     0.00340717068702798
60.0445     0.005671077704808595
70.0288     0.3726725432626864
70.0652     0.2744586564875223
72.0445     0.0025298280908547604
74.0601     0.009285365703375167
84.0807     0.003966186325063535
85.0886     0.044726590481849876
98.06       0.011838211028994003
106.0419    0.0030877134688813714
113.0836    0.005871145066793074
138.0108    0.0041878836127041226
158.9762    0.009360397579353514
159.9843    0.0020797748098687198
160.9554    0.002306070630288171
161.9637    0.004869708237932206
166.0055    0.006107032976753311
166.9218    0.006249218929851678
167.0133    0.008185288172830742
173.9873    0.010322895249846054
174.9713    0.0213443025256208
179.9297    0.002965435590489032
180.0209    0.0027109588725221694
186.9711    0.0012095048440524698
187.9792    0.0037871383971249816
192.9374    0.0020304932053984846
194.9166    0.03813806107108579
194.9529    0.003964145052806579
196.9323    0.01443928141168341
201.9821    0.031750946640009166
206.9281    0.0019418112662352022
208.0524    0.002899192525617022
209.0603    0.005969574080983318
215.9979    0.0027129415527050826
222.948     0.03371486034862662
237.9586    0.011257537114298773
239.9745    0.014848788977432224
244.0292    0.0203253447765544
245.037     0.011215445324333592
265.9538    0.07876549146086673
280.0058    0.026024576917973743
283.9646    0.003930643616922752
297.9801    0.009998009759549469
308.0008    1.0
340.027     0.026116029695219152
376.0384    0.029817260771396785


