PRECURSORMZ: 152.070604528
COMPOUNDNAME: Training-093
FORMULA: C8H9NO2
SMILES: CC(=O)NC1=CC=C(O)C=C1
INCHIKEY: RZVAJINKPMORJF-UHFFFAOYSA-N
PRECURSORTYPE: [M+H]+
IONMODE: positive
CHARGE: 1
PARENTMASS: 151.063328528
NUM PEAKS: 10
65.0386     0.010319900876582596
67.0544     0.001208945235906453
82.0652     0.006373317454787425
92.0494     0.019091958244543662
93.0335     0.022581188979558995
109.0523    0.0013087159222601667
110.06      0.8201500279206857
111.044     0.017814446560394968
134.06      0.018934735882272166
152.0706    1.0


