PRECURSORMZ: 307.028183104
COMPOUNDNAME: Training-024
FORMULA: C14H12O6S
SMILES: COC1=CC(O)=C(C=C1S(O)(=O)=O)C(=O)C1=CC=CC=C1
INCHIKEY: CXVGEDCSTKKODG-UHFFFAOYSA-N
PRECURSORTYPE: [M-H]-
IONMODE: negative
CHARGE: -1
PARENTMASS: 308.035459104
NUM PEAKS: 34
122.0004    0.0037312422973710202
145.0295    0.007859326408303089
149.0245    0.0011474065085389144
149.996     0.004016487277487283
154.0423    0.0022250284814698726
155.0504    0.0015950096833050032
157.968     0.001421108894350524
158.0375    0.004120244305087663
169.0297    0.0013211533436021895
182.0374    0.0416634678469272
183.0451    0.005501684413471202
184.0529    0.006833547421351274
185.9629    0.005880233346728638
186.0323    0.0014330738749720711
197.0248    0.0019836366751328147
198.0324    0.005186588168603986
199.04      0.006257850661567504
200.0479    0.017155536063501637
200.9863    0.003116457039364036
201.9944    0.0014610619028858855
210.0323    0.026209414398873213
211.0402    0.08068710805905198
212.0481    0.017098490225506923
213.9578    0.019687228853643535
226.0275    0.0022144964562972273
227.0714    0.0922232955133099
228.0429    0.05762607047298583
228.9813    0.0335556045927209
263.002     0.015190133055637357
264.0099    0.018239864899539163
275.0021    0.001247776550532799
290.997     0.053385607916545945
292.0048    0.009527093121576992
307.0282    1.0


