PRECURSORMZ: 329.00044413200004
COMPOUNDNAME: Training-014
FORMULA: C12H11ClN2O5S
SMILES: NS(=O)(=O)c1cc(C(O)=O)c(NCc2ccco2)cc1Cl
INCHIKEY: ZZUFCTLCJUWOSV-UHFFFAOYSA-N
PRECURSORTYPE: [M-H]-
IONMODE: negative
CHARGE: -1
PARENTMASS: 330.00772013200003
NUM PEAKS: 39
79.0172     0.013402819636871635
94.0283     0.0037467056997004095
116.0497    0.0030944361100184122
126.0111    0.1869669665065759
140.9984    0.0021494748563744897
141.0459    0.0019370840992612693
142.0661    0.003450461725540288
144.046     0.0019031034477601002
146.0609    0.002458619325464904
156.0692    0.007317805749208397
157.0532    0.0075343564485274
157.077     0.007042361486077188
158.0484    0.0015531541523140873
167.0613    0.006245942887826271
169.0079    0.008731905653632556
169.0531    0.002661568415998708
170.0616    0.013647555113157907
172.0404    0.0022401055073521608
173.0722    0.0025384060821533436
178.0427    0.004000134987787532
179.0375    0.0021565327358472226
184.0647    0.0017754539852433296
185.0485    0.002225054929933486
185.0718    0.023116050982755966
187.9583    0.002344758435427975
189.9741    0.0018663183408393026
201.0667    0.002366960374166703
203.9757    0.0016345301004069828
204.9843    1.0
206.0377    0.08321515669801176
221.0486    0.002494656577607134
228.9843    0.006632910994811384
243.0002    0.0037556332161195615
249.0338    0.025523488996812647
257.016     0.0035307626323889925
267.0003    0.008890450866688904
269.9867    0.0031304733621606426
285.0106    0.897783021901675
329.0004    0.7934489604070725


