PRECURSORMZ: 308.003973456
COMPOUNDNAME: Training-300
FORMULA: C15H8Cl2FNO
SMILES: Fc1ccc(Oc2ccnc3cc(Cl)cc(Cl)c23)cc1
INCHIKEY: WRPIRSINYZBGPK-UHFFFAOYSA-N
PRECURSORTYPE: [M+H]+
IONMODE: positive
CHARGE: 1
PARENTMASS: 306.996697456
NUM PEAKS: 33
75.0231     0.0010337734242147503
95.0296     0.0015125729716352657
113.0397    0.003510239143397095
122.9995    0.0013011780267500727
123.0353    0.005335849470576945
133.0521    0.0011082370141019527
150.0105    0.0051293708881332304
162.0104    0.005752354933509083
166.0055    0.0012781149681135265
168.021     0.004200970346901064
183.9715    0.0019491990271448345
184.979     0.001353696498870449
195.9716    0.0011823570502453296
196.9793    0.09777090264156688
209.0634    0.0021428177749704585
210.0715    0.001449033541436108
212.9737    0.0017615396041492342
213.982     0.04792851209515369
217.0216    0.001006183246892517
225.0342    0.0018851949353816705
228.9692    0.02900859738411326
237.0582    0.006346177182304929
238.066     0.0012628915540302433
244.0324    0.014199035228451935
245.0402    0.020618057226950866
253.0291    0.002486793419194941
254.0367    0.0021498036606462695
260.002     0.0013335747347542506
272.0272    0.08142557031444475
273.0352    0.002220751609131929
280.0091    0.008557789031735392
287.9976    0.005897044657558281
308.0039    1.0


