PRECURSORMZ: 85.050872128
COMPOUNDNAME: Training-063
FORMULA: C2H4N4
SMILES: NC1=NNC=N1
INCHIKEY: KLSJWNVTNUYHDU-UHFFFAOYSA-N
PRECURSORTYPE: [M+H]+
IONMODE: positive
CHARGE: 1
PARENTMASS: 84.04359612799999
NUM PEAKS: 3
57.0449     0.03222601040311293
58.0401     0.011032042467760047
85.0508     1.0


