PRECURSORMZ: 214.12601122799998
COMPOUNDNAME: Training-261
FORMULA: C11H19NOS
SMILES: CCCCCCCCN1SC=CC1=O
INCHIKEY: JPMIIZHYYWMHDT-UHFFFAOYSA-N
PRECURSORTYPE: [M+H]+
IONMODE: positive
CHARGE: 1
PARENTMASS: 213.118735228
NUM PEAKS: 7
57.0701     0.16412328972353732
58.9952     0.0018342654262616129
71.0856     0.168079164585122
83.9902     0.0018075456981540563
84.9742     0.0019256403953081384
102.0008    1.0
214.126     0.5947120677708297


