PRECURSORMZ: 279.091022688
COMPOUNDNAME: Training-118
FORMULA: C12H14N4O2S
SMILES: Cc1cc(C)nc(NS(=O)(=O)c2ccc(N)cc2)n1
INCHIKEY: ASWVTGNCAZCNNR-UHFFFAOYSA-N
PRECURSORTYPE: [M+H]+
IONMODE: positive
CHARGE: 1
PARENTMASS: 278.083746688
NUM PEAKS: 33
54.0341     0.00219312078186549
65.0387     0.025411941019321652
68.0495     0.02293585813985561
78.0338     0.0022868822150290645
79.0179     0.0040780582553199395
80.0494     0.005647678162452368
81.0447     0.016320889591699875
82.0651     0.0028663517372116893
92.0494     0.23508010798945042
93.0573     0.00963384081181708
94.0651     0.008654632274023194
95.0603     0.033587449838718045
96.0443     0.002442450982441192
105.0447    0.0021700727535205375
107.0603    0.0023032298987673027
108.0444    0.29380774256097225
110.06      0.022314056758897593
120.0555    0.003398770593435022
122.0712    0.05212094653558917
123.079     0.009864519972197729
124.0869    0.4493307140397784
125.0709    0.007363378599410297
149.0233    0.003398557252727091
156.0112    0.2892626814959913
174.0219    0.009635760878188458
186.0331    0.03786604474354892
196.0869    0.0024838933189428396
204.0437    0.5291332285239854
205.0497    0.002440436901520555
213.1134    0.06602366982610997
215.1292    0.0018154028664457518
218.0596    0.0029813351468980947
279.091     1.0


