PRECURSORMZ: 154.049869084
COMPOUNDNAME: Training-069
FORMULA: C7H7NO3
SMILES: NC1=CC(C(O)=O)=C(O)C=C1
INCHIKEY: KBOPZPXVLCULAV-UHFFFAOYSA-N
PRECURSORTYPE: [M+H]+
IONMODE: positive
CHARGE: 1
PARENTMASS: 153.042593084
NUM PEAKS: 11
55.018      0.005505582423802977
63.0232     0.0013219452819996855
67.0543     0.01323909872153398
72.0444     0.0013321426587407565
80.0494     0.03072159755489142
81.0334     0.0011405970290903763
91.0542     0.010454408709178686
92.0494     0.008165493070483245
108.0443    0.21524478785673912
136.0392    1.0
154.0498    0.7366201362161688


