PRECURSORMZ: 203.09273693999998
COMPOUNDNAME: Training-121
FORMULA: C10H10N4O
SMILES: CC1=NN=C(C(=O)N1N)c1ccccc1
INCHIKEY: VHCNQEUWZYOAEV-UHFFFAOYSA-N
PRECURSORTYPE: [M+H]+
IONMODE: positive
CHARGE: 1
PARENTMASS: 202.08546094
NUM PEAKS: 43
53.0388     0.001906620790640832
55.0293     0.0013260626069884795
56.0133     0.0034580274499054634
57.0449     0.018339127670513565
59.0241     0.0028363255521180533
72.0445     0.01004185813802435
72.0557     0.009808416955894864
77.0386     0.006613580432564933
79.0543     0.023643875719302366
83.024      0.01439187052723571
89.0386     0.01080810952232244
91.0543     0.0021109751798129676
92.0495     0.0034640925601466402
93.0573     0.0012433508571881304
95.0492     0.009144086625834937
100.0506    0.0029729864045752842
103.0542    0.0015024704146088838
104.0495    0.07864574778354305
105.0448    0.00256323514723159
105.0574    0.006920951293361345
106.0652    0.03720115629164419
116.0496    0.0021295923887565773
117.0335    0.0028483067306809585
117.0447    0.004094385950875392
117.0573    0.001690354450026847
118.0651    0.00204965298154532
119.0604    0.005908359678189339
120.0806    0.002912089342274589
130.0651    0.01554532548833137
131.0607    0.001091032458821591
132.0683    0.0014722458535560686
134.0601    0.0013301290895229492
134.0712    0.005872384379468611
145.0397    0.03733804274307238
158.0603    0.0020993360646717482
158.0713    0.008636438446078198
159.0792    0.005850941075112501
173.071     0.001207584868704005
174.0788    0.07534886722603049
175.0979    0.20514642888068182
186.0661    0.005055620815464863
187.0743    0.001669871366561613
203.0927    1.0


