PRECURSORMZ: 181.07200149599998
COMPOUNDNAME: Training-102
FORMULA: C7H8N4O2
SMILES: CN1C2=C(NC=N2)C(=O)N(C)C1=O
INCHIKEY: ZFXYFBGIUFBOJW-UHFFFAOYSA-N
PRECURSORTYPE: [M+H]+
IONMODE: positive
CHARGE: 1
PARENTMASS: 180.064725496
NUM PEAKS: 11
69.0448     0.01894735890468344
83.0239     0.0020605751435847693
93.0698     0.001442435105860278
96.0556     0.0431159202777826
97.0397     0.0013607958853914146
108.0556    0.0012158220202014662
110.0714    0.0020918615438639903
124.0505    0.377882577060791
137.0821    0.007312434221105257
142.061     0.018748029997969432
181.0719    1.0


