PRECURSORMZ: 252.14166129199998
COMPOUNDNAME: Training-294
FORMULA: C14H21NOS
SMILES: CCCN(CCC)C(=O)SCc1ccccc1
INCHIKEY: NQLVQOSNDJXLKG-UHFFFAOYSA-N
PRECURSORTYPE: [M+H]+
IONMODE: positive
CHARGE: 1
PARENTMASS: 251.134385292
NUM PEAKS: 7
65.0387     0.008601134954685232
86.06       0.027019808483114024
91.0542     1.0
100.1122    0.0019001257638289807
128.107     0.1498027269613349
192.1748    0.0018919975049915638
252.1416    0.246685491860367


