PRECURSORMZ: 149.977488428
COMPOUNDNAME: Training-100
FORMULA: C4H4ClNOS
SMILES: CN1SC(Cl)=CC1=O
INCHIKEY: DHNRXBZYEKSXIM-UHFFFAOYSA-N
PRECURSORTYPE: [M+H]+
IONMODE: positive
CHARGE: 1
PARENTMASS: 148.970212428
NUM PEAKS: 27
58.0289     0.005818874621969514
58.9952     0.0037516148226410095
59.9904     0.0031852779932902645
63.9949     0.0012721670219091783
66.0106     0.0012117329893940913
70.9951     0.006832254459935124
78.0105     0.004304979618262381
78.9404     0.0021734886961437337
86.0059     0.004923990075025289
87.0137     0.0012835843671740014
92.9559     0.0020358433588467378
94.9717     0.005117975757811218
95.9902     0.009928522464498673
102.9404    0.0013123738078603222
102.9946    0.0029348965568311313
104.956     0.008630108259769734
106.0054    0.0031576423465587674
106.9717    0.008105712166607326
114.0008    0.0013020809228057087
115.0087    0.020991033717249037
116.9976    0.0024514405932352214
118.9353    0.01117272790918064
120.9509    0.007451814109583308
121.9824    0.001602083647584653
132.9509    0.005128060047348575
134.954     0.006978338137766127
149.9775    1.0


