PRECURSORMZ: 391.284285696
COMPOUNDNAME: Training-311
FORMULA: C24H38O4
SMILES: CCCCC(CC)COC(=O)c1ccccc1C(=O)OCC(CC)CCCC
INCHIKEY: BJQHLKABXJIVAM-UHFFFAOYSA-N
PRECURSORTYPE: [M+H]+
IONMODE: positive
CHARGE: 1
PARENTMASS: 390.277009696
NUM PEAKS: 13
57.0701     0.08232871033060762
65.0386     0.004151620994507783
71.0857     0.13072000407768775
93.0335     0.003358361386374874
113.1326    0.010414848724602516
121.0286    0.022901307295002855
121.0397    0.002950569886081222
149.0235    1.0
163.0391    0.02530525680829381
167.0341    0.12655788125162937
181.0496    0.020996868037129034
279.1595    0.02029145403007684
391.2849    0.0022842745725326825


