PRECURSORMZ: 287.200556072
COMPOUNDNAME: Training-247
FORMULA: C19H26O2
SMILES: CC12CCC3C(CCC4=CC(=O)CCC34C)C1CCC2=O
INCHIKEY: AEMFNILZOJDQLW-UHFFFAOYSA-N
PRECURSORTYPE: [M+H]+
IONMODE: positive
CHARGE: 1
PARENTMASS: 286.193280072
NUM PEAKS: 54
55.0181     0.001957141859740256
67.0543     0.004225558582717918
69.0699     0.005860665824190831
79.0542     0.018573649705180034
81.0699     0.015273932499092225
83.0491     0.021332009349581453
91.0542     0.0032385657473023356
93.0699     0.00659034733590771
95.0491     0.0017368291655744477
95.0855     0.00673677804785941
97.0648     0.5926200365048021
105.0699    0.007758307362273739
107.0855    0.005895277990011389
109.0648    0.38636445780382833
117.0699    0.00245396937091722
119.0855    0.008834579208285103
121.0647    0.0015617055794741438
121.1011    0.005378250830505673
123.0804    0.032075169752732786
131.0855    0.006769510269467442
133.1012    0.008879211144900813
135.1167    0.002261578127523864
137.096     0.002085280813479166
143.0854    0.0033667192561992864
145.1011    0.012615358360566617
147.1167    0.006097452046226996
149.0961    0.0015113237732260732
155.0854    0.002014797751770699
157.1012    0.004372838733692866
159.1167    0.009737337268675456
161.1323    0.004021803836339101
163.1116    0.0018498365770143455
169.1012    0.0058234017085752755
171.1168    0.0053498228602334085
173.0964    0.0017618669484358957
173.1325    0.01642158225792839
179.143     0.0015973168113426086
183.1167    0.00378406163152283
185.1325    0.010205006140646516
187.1482    0.006340246637502322
195.1169    0.00439360545097888
199.1482    0.0034791031246687244
205.1591    0.002303778770540472
209.1325    0.004621893207338296
211.148     0.0158267781559169
213.1273    0.001850029287306803
217.1582    0.0030793829702881015
225.1637    0.0026880151477974993
227.1794    0.0032981673728596462
229.1588    0.006599968877578871
241.1949    0.001973891935613384
251.1794    0.012558883182956428
269.19      0.025415623120055787
287.2005    1.0


