PRECURSORMZ: 215.09610806799998
COMPOUNDNAME: Training-170
FORMULA: C8H14N4OS
SMILES: CSC1=NN=C(C(=O)N1N)C(C)(C)C
INCHIKEY: FOXFZRUHNHCZPX-UHFFFAOYSA-N
PRECURSORTYPE: [M+H]+
IONMODE: positive
CHARGE: 1
PARENTMASS: 214.088832068
NUM PEAKS: 45
57.07       0.01840821254002174
58.0401     0.025397493410213686
59.9904     0.00510309515620335
60.9982     0.0011704827916241634
62.006      0.008209368070544001
69.0084     0.003624585654004584
69.0699     0.0037495506301237157
74.0059     0.0161670850621338
76.0216     0.005607038446721133
79.0542     0.001311974167998781
82.0651     0.006606709662013597
83.0239     0.002375039761762776
84.0807     0.03016718746112507
86.9898     0.0017546970389355735
87.0011     0.00784380950293739
88.009      0.0018354785328757494
89.0168     0.02059513834517982
89.042      0.0031890361185016665
97.0647     0.00918460123021655
99.0916     0.0028800530239446237
104.0276    0.006186703719980781
110.06      0.00221546638057311
112.0757    0.001489302457925665
114.996     0.018470234755002427
130.0687    0.0029688634054553962
131.0274    0.00955524937634896
131.0385    0.021985197970087297
139.0864    0.001909460255147818
140.1055    0.0016169725823876359
143.0636    0.0013226948406555557
145.0541    0.007755848295645386
155.051     0.00117434203940596
155.0637    0.0013399607756831103
156.059     0.0017234324851342273
157.0429    0.002446366447904486
167.0925    0.0024308450252920285
171.0586    0.017030846490390897
172.0664    0.001432376806809488
172.0774    0.003223128215928458
183.0461    0.0016740324734911861
184.0538    0.003058806322968241
186.0821    0.020867823190119393
187.1011    0.19023464469481627
200.0726    0.0016450648812837436
215.0961    1.0


