PRECURSORMZ: 170.09642535199998
COMPOUNDNAME: Training-254
FORMULA: C12H11N
SMILES: N(C1=CC=CC=C1)C1=CC=CC=C1
INCHIKEY: DMBHHRLKUKUOEG-UHFFFAOYSA-N
PRECURSORTYPE: [M+H]+
IONMODE: positive
CHARGE: 1
PARENTMASS: 169.089149352
NUM PEAKS: 12
65.0386     0.006212669916429701
92.0494     0.13445542957167073
93.0572     0.16105264238184477
124.0755    0.0023661156057261166
128.062     0.002548202085217553
143.0855    0.004800752732172784
152.0621    0.0028817306823503246
153.0697    0.012641592047224735
155.0729    0.0025450730317018054
168.0814    0.0012562314998953092
169.0885    0.0031283408245996766
170.0963    1.0


