PRECURSORMZ: 494.26628461200005
COMPOUNDNAME: Training-157
FORMULA: C29H31N7O
SMILES: CN1CCN(CC2=CC=C(C=C2)C(=O)NC2=CC(NC3=NC(=CC=N3)C3=CN=CC=C3)=C(C)C=C2)CC1
INCHIKEY: KTUFNOKKBVMGRW-UHFFFAOYSA-N
PRECURSORTYPE: [M+H]+
IONMODE: positive
CHARGE: 1
PARENTMASS: 493.25900861200006
NUM PEAKS: 116
56.0497     0.030005779021276317
58.0653     0.062396078297805864
70.0652     0.08531540597874088
72.0808     0.010362154588652727
78.0338     0.0015128465901167309
80.0495     0.0017613367389878248
82.0651     0.0013296075712833787
83.0604     0.005603143326051403
84.0682     0.014444319202115639
90.0464     0.003170185353592562
91.0542     0.0128412593052061
94.0652     0.0011756408650581336
95.0492     0.0010896101096593972
97.076      0.03963523270351357
98.0838     0.0569521270936471
99.0917     0.16359615990748239
100.0995    0.01457801107366538
101.1073    0.0018990669360214971
104.0495    0.012625308740522832
105.0335    0.011295739999292183
105.0447    0.009543273153777993
109.076     0.009391835948130594
111.0917    0.043440050891776535
112.0996    0.010009389106750139
115.0541    0.0010354144503489547
117.0573    0.0010290518688516079
118.0413    0.011968687001706413
119.0491    0.06500196313652302
121.076     0.017395170229287025
131.0495    0.006998778628427126
131.0604    0.06147235017340946
132.0444    0.0056691488685421875
132.0682    0.016603919150504954
132.0806    0.0032241369382858443
135.0916    0.006396358096071541
146.0712    0.002027305958737855
146.0964    0.0015412868301663358
158.0602    0.012169765656194055
158.0715    0.0016062716969853568
160.0755    0.006514334890566372
162.0911    0.0016788173297859676
167.0851    0.001197374600286211
173.0823    0.007225773569536914
174.0662    0.004029577627765573
174.0912    0.012963263330884081
174.1149    0.001134353424705255
179.0855    0.004044671423976803
185.0823    0.004722755087652187
189.1387    0.04244252902574177
194.0965    0.033613434843226986
195.1045    0.003187963970592559
196.0992    0.0013758708055361005
204.0809    0.007216021679151268
206.084     0.022901754308499445
207.0678    0.004957954264188806
210.0915    0.0011177840864902812
210.1153    0.0013565889107804096
217.1336    0.16616964938792186
219.0917    0.009199693752921267
220.0755    0.003941854991497882
220.0997    0.00365563312567391
221.1074    0.038693321020138706
222.0913    0.2334154903287097
223.0991    0.045532779942214226
224.0949    0.0018179454087179237
232.0632    0.001559964085529515
237.1022    0.004655895284001342
237.1265    0.0012750846300999253
238.1101    0.03873686615070032
239.1177    0.0018823644661971634
246.1024    0.0013990967242190917
247.0866    0.1402052523304411
248.0944    0.0037546331186845
249.0896    0.003920687065609587
249.1023    0.0049670460436780405
259.0983    0.007002611709346626
260.1054    0.004100692095765561
261.1008    0.0019521476181035469
261.1136    0.004779979491075578
262.1338    0.0014768511312359262
263.1056    0.0014183952604259523
263.1179    0.014935824462422883
264.1132    0.10219697664771722
265.0972    0.0696922341114913
272.1183    0.0015826796663766247
273.1023    0.003939247830814575
274.0972    0.01322502226348809
275.1052    0.002068166268510702
276.1247    0.005734899242115031
277.1074    0.0012699646102899418
288.1123    0.0014118718115672952
290.1289    0.04853621240793256
348.1366    0.0010854220111149362
349.1452    0.004507725349933662
350.1292    0.005394104510754094
351.1265    0.014109964712357509
351.162     0.02504765279542542
361.1327    0.00728510589010851
363.1247    0.0019834279991528393
364.1198    0.002127021534148757
364.1564    0.004471735438203246
365.1632    0.0017333291766686411
366.1713    0.023336573238971127
367.1554    0.0018345979541887476
374.1408    0.0014991506758037848
375.1467    0.0010823877198515982
376.1559    0.030745375035626576
377.1398    0.04053581811648284
378.135     0.14352376293831226
379.1428    0.08887946119862604
393.1585    0.0012641345552300365
394.1664    0.9083769958785782
396.1814    0.0038480637727035163
397.1882    0.0015875334229678876
476.2567    0.021484873420129967
494.2665    1.0


