PRECURSORMZ: 239.03498273600002
COMPOUNDNAME: Training-021
FORMULA: C14H8O4
SMILES: OC1=CC=C2C(=O)C3=CC(O)=CC=C3C(=O)C2=C1
INCHIKEY: APAJFZPFBHMFQR-UHFFFAOYSA-N
PRECURSORTYPE: [M-H]-
IONMODE: negative
CHARGE: -1
PARENTMASS: 240.042258736
NUM PEAKS: 9
139.0552    0.0011354404003166127
153.0345    0.002066682842600429
167.0503    0.013899823939750772
183.0452    0.0028338701280442116
195.0451    0.06169436779853029
210.0323    0.007885588251692827
211.0401    0.06210707688438644
238.0273    0.014393969631695522
239.035     1.0


