PRECURSORMZ: 256.109882496
COMPOUNDNAME: Training-227
FORMULA: C13H18ClNO2
SMILES: COCCN(C(=O)CCl)C1=C(C)C=CC=C1C
INCHIKEY: SCCDDNKJYDZXMM-UHFFFAOYSA-N
PRECURSORTYPE: [M+H]+
IONMODE: positive
CHARGE: 1
PARENTMASS: 255.10260649600002
NUM PEAKS: 20
76.9789     0.01569062286346166
79.0542     0.002343605011224987
91.0542     0.0012590378367582052
103.0543    0.0016086611522168458
105.0698    0.013919144633757423
118.065     0.0024424062289787186
119.0858    0.002249604971003296
120.0808    0.0020210720747456646
121.0648    0.003026735724607133
131.0729    0.005148146005653519
131.0854    0.004064582461767792
132.0807    0.017538844900344644
133.0887    0.007908882348573556
144.0807    0.002457321135251857
146.0964    0.005971722392951997
147.1043    0.005112106109407127
148.112     0.3183795307994535
174.0914    0.0033861363136025555
224.0836    1.0
256.1098    0.08392579717516799


