PRECURSORMZ: 213.07891671599998
COMPOUNDNAME: Training-207
FORMULA: C10H13ClN2O
SMILES: CN(C)C(=O)Nc1ccc(C)c(Cl)c1
INCHIKEY: JXCGFZXSOMJFOA-UHFFFAOYSA-N
PRECURSORTYPE: [M+H]+
IONMODE: positive
CHARGE: 1
PARENTMASS: 212.071640716
NUM PEAKS: 6
56.0133     0.0011199987926458676
72.0444     1.0
140.0261    0.027625441306680158
149.0234    0.001084187909674915
168.0211    0.019805808238519348
213.0789    0.6656326934580727


