PRECURSORMZ: 213.032395892
COMPOUNDNAME: Training-038
FORMULA: C10H11ClO3
SMILES: CC(Oc1ccc(Cl)cc1C)C(O)=O
INCHIKEY: WNTGYJSOUMFZEP-UHFFFAOYSA-N
PRECURSORTYPE: [M-H]-
IONMODE: negative
CHARGE: -1
PARENTMASS: 214.039671892
NUM PEAKS: 3
141.0112    1.0
169.0425    0.002497324648091672
213.0324    0.01724194410829815


