PRECURSORMZ: 147.044055432
COMPOUNDNAME: Training-144
FORMULA: C9H6O2
SMILES: O=C1OC2=CC=CC=C2C=C1
INCHIKEY: ZYGHJZDHTFUPRJ-UHFFFAOYSA-N
PRECURSORTYPE: [M+H]+
IONMODE: positive
CHARGE: 1
PARENTMASS: 146.036779432
NUM PEAKS: 8
77.0386     0.0019840869235797326
91.0542     0.08362472287612575
95.0491     0.00387375953040005
102.0464    0.0015229020074674295
103.0542    0.2671008868311848
105.0446    0.001140889377611
119.0492    0.003620296199458919
147.0439    1.0


