PRECURSORMZ: 271.107718308
COMPOUNDNAME: Training-164
FORMULA: C15H14N2O3
SMILES: NC(=O)N1c2ccccc2C(O)C(O)c2ccccc12
INCHIKEY: PRGQOPPDPVELEG-UHFFFAOYSA-N
PRECURSORTYPE: [M+H]+
IONMODE: positive
CHARGE: 1
PARENTMASS: 270.100442308
NUM PEAKS: 15
165.0698    0.00380098234148115
167.073     0.017413333089208352
179.0726    0.0029995076812907705
180.0808    1.0
181.0886    0.028455821588814774
182.0965    0.23914995246101955
192.0808    0.006896356303895494
193.0887    0.0024199324558493436
208.0757    0.039236954680377197
210.0913    0.5183255394980413
236.0706    0.040252797955627674
253.0972    0.21652438031126225
254.0812    0.4606906833334278
255.0872    0.0030385495139951184
271.1078    0.0072858155685183975


