PRECURSORMZ: 307.11134144399995
COMPOUNDNAME: Training-145
FORMULA: C13H12F2N6O
SMILES: OC(Cn1cncn1)(Cn1cncn1)c1ccc(F)cc1F
INCHIKEY: RFHAOTPXVQNOHP-UHFFFAOYSA-N
PRECURSORTYPE: [M+H]+
IONMODE: positive
CHARGE: 1
PARENTMASS: 306.10406544399996
NUM PEAKS: 42
70.04       0.3404361236089768
82.04       0.006535187920670597
83.0477     0.007515928805071002
84.0556     0.002899994107736416
91.0541     0.0029704511646358313
100.0505    0.0010483857245892983
101.0387    0.0014513184806278442
119.0292    0.0013398006965474802
119.0491    0.0012638255505564092
121.0448    0.1052827077345885
127.0354    0.2042670544007174
129.0446    0.009222471706894232
139.0353    0.1552052161972339
141.0146    0.02377538399755739
141.051     0.12675227884081844
145.0448    0.0011076116387015217
146.0397    0.0013960410920790649
147.035     0.0015667394954646903
149.0396    0.0035292728915227974
151.0354    0.1335670302487386
163.0556    0.0014681799648543806
164.0432    0.0028809545340968278
165.0512    0.0012658815409246065
166.0463    0.0223630288976142
167.0503    0.0036545721129562685
168.0617    0.0028777819282700405
169.046     0.4958995595926839
170.0713    0.004186214986326482
172.0556    0.004127705911767921
173.0511    0.039973257945969516
176.0304    0.0013128266543317748
177.0457    0.007064826006497875
178.0462    0.0036734561087806384
187.0566    0.0032116282876546364
193.0572    0.019481196038130193
200.0619    0.07487606159211484
208.0677    0.003389300121973007
219.0606    0.0015180042525127983
220.0681    0.8209993342057245
238.0786    0.6785562252710048
289.1008    0.06311216916279126
307.1114    1.0


