PRECURSORMZ: 180.08077528799998
COMPOUNDNAME: Training-191
FORMULA: C13H9N
SMILES: C1=CC2=CC3=CC=CN=C3C=C2C=C1
INCHIKEY: RFQDDXWZZVRLKO-UHFFFAOYSA-N
PRECURSORTYPE: [M+H]+
IONMODE: positive
CHARGE: 1
PARENTMASS: 179.073499288
NUM PEAKS: 3
152.0616    0.0013494951202909784
179.0722    0.0011620752756573236
180.0806    1.0


