PRECURSORMZ: 359.1852999319999
COMPOUNDNAME: Training-204
FORMULA: C21H26O5
SMILES: CC12CC(=O)C3C(CCC4=CC(=O)C=CC34C)C1CCC2(O)C(=O)CO
INCHIKEY: XOFYZVNMUHMLCC-UHFFFAOYSA-N
PRECURSORTYPE: [M+H]+
IONMODE: positive
CHARGE: 1
PARENTMASS: 358.1780239319999
NUM PEAKS: 218
55.0545     0.0165085530919005
57.0337     0.004153871979030898
65.0388     0.0027268508513051018
67.0543     0.042520819975677734
69.0336     0.030394335960460143
69.07       0.016273497709712842
71.0493     0.017708234407541237
73.0648     0.0103364255503953
75.0441     0.003792923954663454
77.0387     0.004819880195625379
79.0542     0.0664960069486332
81.0335     0.010485362233952718
81.0699     0.08075819464899803
83.0492     0.026586540411260934
85.0284     0.003839735853376447
85.0648     0.010314546801375148
91.0542     0.06830905812036803
93.0699     0.17008195547351165
95.0492     0.0861181236842335
95.0856     0.12211931259044492
97.0649     0.03615583398228653
99.044      0.019729077227055934
99.0806     0.0034441216647356355
101.0597    0.030227242276601392
105.0699    0.0862142936711278
107.0492    0.012023548145824788
107.0855    0.12427654081680321
109.0648    0.11188023258619442
109.1012    0.02252391031047598
111.0441    0.014216145818628147
111.0804    0.0449679339263833
113.0596    0.005261105056496146
115.0545    0.011106961004800285
115.0754    0.0030448832628596685
116.0621    0.0025486381223084695
117.0699    0.04675765871718252
119.0855    0.07367380746187517
121.0648    0.2168661181750187
123.044     0.003641584818139957
123.0804    0.059090189008367
125.0597    0.010277206111470738
125.0961    0.025300422123306413
128.0619    0.004765999541069882
129.0699    0.01873589393067486
131.0855    0.055086136665693015
132.0571    0.00571786372650229
133.0648    0.03198429268037263
133.1012    0.012348798183170612
135.0804    0.191333227926565
137.0597    0.015033221099081165
137.096     0.04304474979325044
139.0754    0.03361292478628179
141.0547    0.002666563655506725
141.0699    0.019332621153187693
143.0854    0.02426748541716183
144.0571    0.01668305433907133
145.0648    0.0782985602222577
145.1012    0.010781567230952218
146.0726    0.03129657511849278
147.0804    0.7289212216165326
149.0596    0.004828776458424987
149.0962    0.010459309992920976
151.0754    0.010966653644824022
152.0623    0.0027935343214533404
153.0699    0.016400242504013073
153.0911    0.05000785930660485
155.0701    0.00392713278018736
155.0856    0.01677906518912387
157.0648    0.004904535862000637
157.1012    0.009151600428950791
158.0726    0.04711063449912192
159.0805    0.2751575583069688
160.0885    0.012941387847797418
161.0961    0.13458409073058697
163.0754    0.05203994950742014
165.0699    0.009739621326184838
165.091     0.013779674529224453
167.0706    0.002933554208425115
167.0855    0.020974405149052185
169.0649    0.01745153128142632
169.0768    0.00254939787239176
169.1013    0.018750108444057497
170.0727    0.010671454803340231
171.0804    0.4608252323269554
172.0881    0.012130257098401495
173.0962    0.21381890432744408
175.0756    0.010493021336143724
175.1118    0.004435251582513223
177.0911    0.021754037070670616
178.0782    0.0042098470797619515
179.0856    0.05670253576857191
180.0934    0.004531534505230726
181.0646    0.012258500859082274
181.0857    0.029144660009271003
181.1011    0.01820975159765689
182.0727    0.025566606725122933
183.0805    0.05849997612947374
183.1018    0.04986448214561637
183.1166    0.0033447278734338496
184.0883    0.013459337200187473
185.0597    0.01502390902711435
185.0962    0.07829841648575546
186.1042    0.01312544243892097
187.0753    0.0942868436439462
187.1118    0.08249343303855372
189.0912    0.036523296350273536
191.0855    0.005826323184338471
192.0938    0.003153450523072532
192.1225    0.0025724932482344793
193.101     0.01701678996349606
194.0726    0.013160842686045084
194.1087    0.004149118407563825
195.0805    0.04446643213660717
195.1015    0.004412294809726238
195.1169    0.011984267013140083
196.0883    0.02425504707627121
197.0962    0.23157462311519095
198.104     0.010648888172487908
199.1117    0.10744196767058058
201.091     0.005693767328590372
201.1273    0.005765640713158922
203.1068    0.010123197582762707
204.0931    0.011160903260713888
205.1014    0.011862203922055801
207.0808    0.012057552095498532
207.117     0.02048500289269711
208.0883    0.056601596809871
209.0961    0.13239120045133262
209.1328    0.01496579841263567
210.1039    0.04536710559345465
211.1117    0.10400320532400005
212.1195    0.027805071742481684
213.0907    0.01776029782203265
213.1274    0.1117350073844628
215.1067    0.0386521776850107
217.1013    0.004302675192979088
218.1089    0.004099862988312682
219.0803    0.01004106243862323
219.117     0.022939909415202908
220.0882    0.01682445512315395
221.0962    0.10313048348339253
221.1326    0.011322606825738485
222.104     0.13948129603097317
223.1118    0.13074379019809457
224.0826    0.003285549502081356
224.1194    0.016870219798779167
225.0911    0.014565399851848734
225.1275    0.10404977081728062
227.1064    0.02840835437618615
227.1431    0.06556355745789676
228.0935    0.00405689090758821
229.1012    0.003483921275517721
230.1092    0.0058732582857676735
231.0805    0.011923738545355797
233.0964    0.027945476637941613
233.1322    0.0036480888948665024
234.104     0.04858968310721357
235.1119    0.11256739573585132
236.1196    0.020039075794824356
237.1274    0.3781287714789819
238.0984    0.02312695680564104
238.1352    0.014040474145653332
239.1067    0.07642224445574944
239.143     0.08494159934579358
241.1219    0.019139942371929494
243.1167    0.0056433004159631706
243.1387    0.0036281659889661703
245.0965    0.016419949805160036
245.1326    0.010470413637719334
246.1042    0.028082103316771124
247.1117    0.043641461615423746
247.1481    0.005042748775801344
248.1197    0.06279992032891019
249.1275    0.113260308345598
250.1351    0.010910267868372271
251.1069    0.0042717461777640655
251.1432    0.047608599344253544
252.1512    0.009686428553461508
253.1223    0.12508856478589164
253.1588    0.04354317664856785
255.138     0.09699060938630161
257.096     0.009994024668263853
258.1039    0.009461912136956246
259.1119    0.011813774987692562
259.1477    0.0037687402881608862
260.1195    0.01717328308031431
261.1275    0.09309227010758164
262.1352    0.04435999525669542
263.1068    0.011296713721548514
263.1432    0.15327982570922413
264.1507    0.0543182295359005
265.1226    0.017503024883355263
265.1588    0.27453861866141277
267.138     0.25444168892443514
267.1742    0.035829742059713274
269.1533    0.003836547983094534
272.1194    0.02691575346931149
275.1431    0.0398488970020159
276.1136    0.004279646551940981
277.1237    0.018964553038512657
277.1588    0.1572614294903155
279.1378    0.027475992154040358
280.146     0.005183841553093441
281.1537    0.060561393710193326
283.1697    0.05122038963885691
287.1431    0.07626115177085938
290.1302    0.012350353617462752
292.1457    0.02303043261093763
293.1537    0.07431644822996199
295.1695    0.2986838613168625
297.1486    0.035831749237298184
299.1637    0.0029307102790592857
305.1538    0.19127179597219518
311.1638    0.05014332582652339
313.1799    0.3756017297661356
323.1643    0.3539799867454411
341.1749    0.7492221031833015
359.1854    1.0


