PRECURSORMZ: 152.01646078
COMPOUNDNAME: Training-152
FORMULA: C7H5NOS
SMILES: O=C1NC2=C(S1)C=CC=C2
INCHIKEY: YEDUAINPPJYDJZ-UHFFFAOYSA-N
PRECURSORTYPE: [M+H]+
IONMODE: positive
CHARGE: 1
PARENTMASS: 151.00918478
NUM PEAKS: 8
65.0386     0.003061591255500714
80.0495     0.006288526502811669
92.0495     0.040037576477232543
97.0107     0.0018949917546520383
109.0106    0.011352765204548358
119.0365    0.010039003654517284
124.0215    0.04739317698265494
152.0164    1.0


