PRECURSORMZ: 192.13829016399998
COMPOUNDNAME: Training-216
FORMULA: C12H17NO
SMILES: CCN(CC)C(=O)C1=CC(C)=CC=C1
INCHIKEY: MMOXZBCLCQITDF-UHFFFAOYSA-N
PRECURSORTYPE: [M+H]+
IONMODE: positive
CHARGE: 1
PARENTMASS: 191.131014164
NUM PEAKS: 11
65.0386     0.0052240365382718625
67.0544     0.0014857630281556278
72.0445     0.03900592085773024
72.0809     0.004979278836768005
91.0542     0.03478822941379093
100.0757    0.06011436420959331
108.057     0.0012641135823328285
109.0648    0.03422240337468043
118.0652    0.0015204971368847947
119.0492    1.0
192.1383    0.9473902304130477


