PRECURSORMZ: 304.00909417199995
COMPOUNDNAME: Training-306
FORMULA: C10H16Cl3NOS
SMILES: CC(C)N(C(C)C)C(=O)SCC(Cl)=C(Cl)Cl
INCHIKEY: MWBPRDONLNQCFV-UHFFFAOYSA-N
PRECURSORTYPE: [M+H]+
IONMODE: positive
CHARGE: 1
PARENTMASS: 303.00181817199996
NUM PEAKS: 20
53.0024     0.002920180171652837
58.0653     0.011310779601908181
78.9404     0.0021027624496501945
80.9561     0.001070724407623168
82.945      0.07005128222941145
86.06       0.45781221438412045
96.9607     0.007625827295553847
104.956     0.004015544885084995
111.1168    0.0027520073708164126
118.032     0.0059198823170310754
128.107     0.15769703452291375
140.9326    0.09456988446627361
142.9216    0.6664573687974271
160.0791    0.006385421275416964
176.9093    0.01015632157357552
201.9045    0.0034470376707942253
218.956     0.0023029242289972327
219.9153    0.003624697532105124
261.9622    0.07744575116460722
304.0091    1.0


