PRECURSORMZ: 182.00926722399998
COMPOUNDNAME: Training-238
FORMULA: C8H7NS2
SMILES: CSC1=NC2=CC=CC=C2S1
INCHIKEY: UTBVIMLZIRIFFR-UHFFFAOYSA-N
PRECURSORTYPE: [M+H]+
IONMODE: positive
CHARGE: 1
PARENTMASS: 181.001991224
NUM PEAKS: 5
109.0105    0.002107295678782228
135.0137    0.008919811043255845
136.0216    0.0034028303685290293
166.9858    0.20218072927069697
182.0092    1.0


