PRECURSORMZ: 110.060039844
COMPOUNDNAME: Training-077
FORMULA: C6H7NO
SMILES: NC1=CC=C(O)C=C1
INCHIKEY: PLIKAWJENQZMHA-UHFFFAOYSA-N
PRECURSORTYPE: [M+H]+
IONMODE: positive
CHARGE: 1
PARENTMASS: 109.052763844
NUM PEAKS: 12
55.0181     0.0010918970930821432
65.0386     0.07761379519902765
67.0416     0.002026688949660691
67.0543     0.006094591309632331
80.0495     0.0030922313379925046
82.0651     0.0359848880785982
92.0494     0.08329932138154562
93.0334     0.0768506431682366
93.0572     0.004638367264256052
109.0522    0.008734396839866302
110.06      1.0
121.0396    0.01140953104426213


