PRECURSORMZ: 273.03393718
COMPOUNDNAME: Training-002
FORMULA: C13H10N2O3S
SMILES: OS(=O)(=O)C1=CC=C2N=C(NC2=C1)C1=CC=CC=C1
INCHIKEY: UVCJGUGAGLDPAA-UHFFFAOYSA-N
PRECURSORTYPE: [M-H]-
IONMODE: negative
CHARGE: -1
PARENTMASS: 274.04121318
NUM PEAKS: 4
193.0771    0.7535461067354479
208.0642    0.0019464285111517872
209.0721    0.008924064342297427
273.034     1.0


