PRECURSORMZ: 429.23973551600005
COMPOUNDNAME: Training-240
FORMULA: C25H28N6O
SMILES: CCCCC1=NC2(CCCC2)C(=O)N1Cc1ccc(-c2ccccc2C2NN=NN=2)cc1
INCHIKEY: YOSHYTLCDANDAN-UHFFFAOYSA-N
PRECURSORTYPE: [M+H]+
IONMODE: positive
CHARGE: 1
PARENTMASS: 428.23245951600006
NUM PEAKS: 35
67.0544     0.0034303106435844125
79.0543     0.008448902683518451
80.0495     0.007379227264964145
84.0808     0.08017904749989781
95.0493     0.003876511015878692
112.0759    0.0040270319984619
129.0449    0.003621098874320971
140.0494    0.003074122013104657
152.0621    0.005690950466774972
153.07      0.012193474586777425
165.0698    0.0063186352139598416
166.0778    0.0021085404111615726
167.0729    0.004223210313590541
167.1543    0.022776455561196646
169.0648    0.001103073351762876
178.0653    0.011442377663757032
179.0604    0.002383616857663159
179.073     0.01470133013878442
180.0809    0.14855399357404575
181.0763    0.0010370377323246412
190.0652    0.02237199083075455
191.0729    0.00347356928020683
192.0683    0.029800583299494563
192.0809    0.05321396244259885
194.06      0.005788538003045923
195.1494    0.1557056168980763
196.0758    0.0206832797248066
205.0762    0.04443450195520185
206.0841    0.13347336104589178
207.0918    1.0
208.0758    0.010486451698608488
235.098     0.010260321569800643
386.2231    0.032031641429245646
401.2339    0.02236543036614495
429.2402    0.7301032528767513


