PRECURSORMZ: 220.11207541599998
COMPOUNDNAME: Training-290
FORMULA: C16H13N
SMILES: N(C1=CC=CC=C1)C1=CC2=CC=CC=C2C=C1
INCHIKEY: KEQFTVQCIQJIQW-UHFFFAOYSA-N
PRECURSORTYPE: [M+H]+
IONMODE: positive
CHARGE: 1
PARENTMASS: 219.104799416
NUM PEAKS: 19
65.0387     0.00579865572290193
92.0495     0.06309316489786015
93.0573     0.015095796638022808
104.0495    0.0015723444614429644
115.0542    0.025785218803030044
124.0756    0.0014071625311216048
128.062     0.027589105743569632
142.0651    0.031168970301823036
143.0729    0.2898975687640491
178.0776    0.002261144683887669
193.1019    0.0024186047823560024
202.0777    0.00416230689126346
203.0854    0.01499964963280679
204.0811    0.004424878313254472
204.093     0.0017351259219226176
205.0887    0.009508445201405423
218.0961    0.002806996606729866
219.1051    0.007159184217428882
220.112     1.0


