PRECURSORMZ: 221.096091004
COMPOUNDNAME: Training-276
FORMULA: C16H12O
SMILES: CC(=O)C1=CC=C2C=CC3=CC=CC=C3C2=C1
INCHIKEY: JKVNPRNAHRHQDD-UHFFFAOYSA-N
PRECURSORTYPE: [M+H]+
IONMODE: positive
CHARGE: 1
PARENTMASS: 220.088815004
NUM PEAKS: 4
88.0757     0.0013499766681411406
178.078     0.0020160929956354067
179.0855    0.08000827591185573
221.0961    1.0


