PRECURSORMZ: 421.15491103600016
COMPOUNDNAME: Training-032
FORMULA: C22H23ClN6O
SMILES: CCCCC1=NC(Cl)=C(CO)N1CC1=CC=C(C=C1)C1=C(C=CC=C1)C1=NNN=N1
INCHIKEY: PSIFNNKUMBGKDQ-UHFFFAOYSA-N
PRECURSORTYPE: [M-H]-
IONMODE: negative
CHARGE: -1
PARENTMASS: 422.16218703600015
NUM PEAKS: 33
113.9982    0.029297278273203258
127.0066    0.4719118820757393
140.0144    0.0012786629639401541
155.0018    0.0038651738706884193
155.0382    0.06898415796981755
156.0461    0.010807840999607493
157.0539    0.24389932343413367
165.071     0.004885957733717351
177.0712    0.0010029590587310826
179.0867    0.2498314998968719
180.0579    0.0026064539756413692
185.0489    0.006858799541795832
187.0644    0.14502590284555897
188.0358    0.01026473364823298
193.066     0.019956751313304436
195.0816    0.045327630023591976
207.0931    0.0012775489136715387
216.0824    0.0016937957520635624
223.0764    0.0015108404544289498
229.0782    0.001008733291109259
230.0977    0.0011611541968744928
241.0774    0.0014823929454571188
272.1446    0.017503706766906088
277.0537    0.003951897192303043
291.0694    0.015276955642676377
292.0781    0.0016374656046786345
299.1556    0.009560136080455769
320.1079    0.008298670286859313
333.1174    0.001110865026298255
335.1322    0.047992155830841036
363.1387    0.013862912034826154
393.1492    0.01291981356447209
421.1552    1.0


