PRECURSORMZ: 131.06037419199998
COMPOUNDNAME: Training-128
FORMULA: C8H6N2
SMILES: C1=CC=C2N=CC=NC2=C1
INCHIKEY: XSCHRSMBECNVNS-UHFFFAOYSA-N
PRECURSORTYPE: [M+H]+
IONMODE: positive
CHARGE: 1
PARENTMASS: 130.053098192
NUM PEAKS: 5
71.0492     0.0012435635960887103
77.0388     0.001485242918964169
95.0492     0.0011726324096468443
104.0494    0.01269057640184153
131.0603    1.0


