PRECURSORMZ: 276.081953496
COMPOUNDNAME: Training-242
FORMULA: C12H18ClNO2S
SMILES: COCC(C)N(C(=O)CCl)C1=C(C)SC=C1C
INCHIKEY: JLYFCTQDENRSOL-UHFFFAOYSA-N
PRECURSORTYPE: [M+H]+
IONMODE: positive
CHARGE: 1
PARENTMASS: 275.074677496
NUM PEAKS: 54
56.0497     0.001051272847451092
58.9952     0.002386044120482149
73.0648     0.015743783794949003
76.9789     0.009297715025383508
93.0699     0.0031460634908977406
94.0651     0.0010685852711399169
95.073      0.0030156441351706156
99.0264     0.001777897759090784
107.0856    0.001073127220483067
108.0808    0.00384496552800448
111.0263    0.06545190445152346
112.034     0.0017347132076857403
113.0419    0.003405200864783483
114.0372    0.0012996685914678369
116.0263    0.0028547666369837235
117.0699    0.002092912355754666
120.0808    0.0018131546695553985
122.0964    0.0013362348410432484
124.034     0.002163954961488676
125.0419    0.006493371370342149
126.0372    0.01921585964251944
127.0213    0.00280013311423037
127.045     0.0016640146333850492
127.0576    0.0036132643740418072
128.0528    0.007079247720992573
129.037     0.0032075971504374407
133.0886    0.001298234629896538
134.0964    0.004437766572721681
135.1042    0.011198826758714392
137.0295    0.002718792057211578
138.0371    0.009302127532612985
139.0575    0.0013166512131755547
140.0528    0.0028862628409330846
141.0732    0.0011977740087579982
149.042     0.0011380477191565148
150.0372    0.006584024915311809
151.0449    0.0018420250805570601
151.0576    0.019550652259728813
152.0164    0.0038432843870778214
152.0528    0.013682203545428673
153.0243    0.008579361786117564
153.0607    0.0030066786622478863
154.0322    0.0019360858908096098
166.0322    0.004629274573345941
166.0685    0.005623593808811243
167.0763    0.018705738370865425
168.0842    0.25784487143001406
174.0137    0.0013146517456324763
186.0139    0.015491818064978105
202.0088    0.0032466149969246024
203.0166    0.008708293934581241
204.0246    0.005532507872100176
244.0558    1.0
276.0821    0.12110122189683188


