PRECURSORMZ: 321.01920892
COMPOUNDNAME: Training-224
FORMULA: C15H10Cl2N2O2
SMILES: OC1N=C(c2ccccc2Cl)c2cc(Cl)ccc2NC1=O
INCHIKEY: DIWRORZWFLOCLC-UHFFFAOYSA-N
PRECURSORTYPE: [M+H]+
IONMODE: positive
CHARGE: 1
PARENTMASS: 320.01193292
NUM PEAKS: 29
93.0573     0.010107230490146535
128.0262    0.02055478209041038
130.04      0.002163643003274015
138.0105    0.054981801201312616
153.0214    0.00681931827032958
156.0211    0.0027682286189043997
163.0057    0.06331003750386158
166.0053    0.009817322479401473
177.0578    0.0017888536732298737
181.0163    0.0018320186725356365
194.0839    0.01710634491436424
205.0761    0.007194608993927963
214.0421    0.002274526234829788
229.0527    0.2929326273812431
239.037     0.021759544256776713
240.0446    0.0018496210668827017
241.0292    0.004159013438099814
248.003     0.0023358467605837313
250.0188    0.005933888296665441
257.0477    0.005121756792706785
263.0136    0.0029652123180637516
265.0294    0.02265416017426295
274.0057    0.0012947938228314118
275.0137    1.0
275.9981    0.004865024478917577
291.009     0.004653791043248533
292.0164    0.002363930443826425
303.0087    0.3133598523174918
321.0193    0.6562010059478633


