PRECURSORMZ: 207.14918919599998
COMPOUNDNAME: Training-214
FORMULA: C12H18N2O
SMILES: CC(C)c1ccc(NC(=O)N(C)C)cc1
INCHIKEY: PUIYMUZLKQOUOZ-UHFFFAOYSA-N
PRECURSORTYPE: [M+H]+
IONMODE: positive
CHARGE: 1
PARENTMASS: 206.141913196
NUM PEAKS: 10
56.0132     0.0015968962840001147
72.0444     1.0
91.0542     0.0016692365462943027
92.0495     0.0012043799503852661
107.0856    0.002184244884909895
120.0444    0.007352058079938905
134.0964    0.032269739228118745
162.0913    0.012973015318243013
165.1023    0.160671403798052
207.1492    0.8233353492158386


