PRECURSORMZ: 332.09038734800004
COMPOUNDNAME: Training-037
FORMULA: C18H14F3NO2
SMILES: CNC1=C(C(=O)C(O1)c1ccccc1)c1cccc(c1)C(F)(F)F
INCHIKEY: NYRMIJKDBAQCHC-UHFFFAOYSA-N
PRECURSORTYPE: [M-H]-
IONMODE: negative
CHARGE: -1
PARENTMASS: 333.097663348
NUM PEAKS: 32
134.061     0.016508214655518678
145.027     0.028391291301191474
159.0423    0.0023118156996790413
161.0217    0.0036844892359769164
169.027     0.010566003524170982
171.0426    0.004686671153979052
183.03      0.028928062737279138
185.0219    0.05447304003431708
186.0559    0.003120413788768308
189.0166    0.002451723826715669
198.0535    0.026478407796735704
207.0612    0.0020786178667760334
210.0535    0.0018128176557256149
227.0674    0.006241099103828674
239.0198    0.0013238660845783735
240.0278    0.007214833236240658
247.074     0.08337179234937908
254.0442    0.0024468339505710653
255.0508    0.001342512491891456
255.0626    0.0022668937171122787
259.0737    0.0016233451673942773
274.0608    0.0045132571630798445
275.069     0.012444847723730217
277.0851    0.003418119540579436
286.0845    0.004251827804465315
288.0642    0.0017400582210039476
291.0643    0.004879711930307803
304.0954    0.016462341129485938
314.0791    0.0030872203002859726
316.0592    0.010153040868599634
317.0668    0.0070418229304482285
332.0904    1.0


