PRECURSORMZ: 219.11280368799999
COMPOUNDNAME: Training-133
FORMULA: C12H14N2O2
SMILES: CCC1(C(=O)NCNC1=O)c1ccccc1
INCHIKEY: DQMZLTXERSFNPB-UHFFFAOYSA-N
PRECURSORTYPE: [M+H]+
IONMODE: positive
CHARGE: 1
PARENTMASS: 218.105527688
NUM PEAKS: 20
91.0542     0.5029553370198688
95.0491     0.004506224911735787
105.0698    0.001551851146357128
106.0651    0.17274577378112785
115.0544    0.0036521793994060093
117.0699    0.1329248090769397
119.0855    0.3796905496787667
131.0855    0.009974090862351175
133.0522    0.0015731390705894565
134.0964    0.04333169018171555
144.081     0.0030186950839584652
145.0648    0.02481343566627952
146.0965    0.006162011217580165
147.0678    0.0011928702792402522
162.0913    1.0
174.0914    0.04636548427980713
176.1069    0.004896752363405095
201.1024    0.0011787345195972921
208.097     0.010223357043039897
219.1128    0.15772974402234366


