PRECURSORMZ: 88.075689908
COMPOUNDNAME: Training-064
FORMULA: C4H9NO
SMILES: C1COCCN1
INCHIKEY: YNAVUWVOSKDBBP-UHFFFAOYSA-N
PRECURSORTYPE: [M+H]+
IONMODE: positive
CHARGE: 1
PARENTMASS: 87.068413908
NUM PEAKS: 5
60.0445     0.002328911486877987
68.0495     0.004336281459173087
70.0651     0.20100905362611385
71.0128     0.0012360798943028808
88.0756     1.0


