PRECURSORMZ: 257.080834864
COMPOUNDNAME: Training-230
FORMULA: C15H12O4
SMILES: OC(=O)C1=CC=CC=C1C(=O)OCC1=CC=CC=C1
INCHIKEY: XIKIUQUXDNHBFR-UHFFFAOYSA-N
PRECURSORTYPE: [M+H]+
IONMODE: positive
CHARGE: 1
PARENTMASS: 256.073558864
NUM PEAKS: 3
65.0387     0.010077231060477145
91.0543     1.0
149.0234    0.019150303586814858


