PRECURSORMZ: 218.01339526799998
COMPOUNDNAME: Training-236
FORMULA: C9H9Cl2NO
SMILES: CCC(=O)Nc1ccc(Cl)c(Cl)c1
INCHIKEY: LFULEKSKNZEWOE-UHFFFAOYSA-N
PRECURSORTYPE: [M+H]+
IONMODE: positive
CHARGE: 1
PARENTMASS: 217.006119268
NUM PEAKS: 6
57.0336     0.06359183253212866
126.0105    0.0012560746879369015
127.0183    0.41462654510325186
161.9871    1.0
200.003     0.001941073865675277
218.0134    0.9085847636442187


