PRECURSORMZ: 279.159085184
COMPOUNDNAME: Training-297
FORMULA: C16H22O4
SMILES: CCCCOC(=O)C1=CC=CC=C1C(=O)OCCCC
INCHIKEY: DOIRQSBPFJWKBE-UHFFFAOYSA-N
PRECURSORTYPE: [M+H]+
IONMODE: positive
CHARGE: 1
PARENTMASS: 278.151809184
NUM PEAKS: 10
57.0701     0.027396400292078158
65.0386     0.0027522604985007687
93.0336     0.0013442392244392774
121.0285    0.01993519515895991
121.0394    0.0020012532431550657
149.0234    1.0
163.0391    0.023991404668071818
167.034     0.001331098296728621
181.0496    0.025495587755503653
205.0861    0.03325720873748699


