PRECURSORMZ: 280.112075416
COMPOUNDNAME: Training-262
FORMULA: C21H13N
SMILES: C1=CC=C2C(C=CC3=NC4=C(C=C23)C2=CC=CC=C2C=C4)=C1
INCHIKEY: ANUCHZVCBDOPOX-UHFFFAOYSA-N
PRECURSORTYPE: [M+H]+
IONMODE: positive
CHARGE: 1
PARENTMASS: 279.104799416
NUM PEAKS: 3
278.0961    0.002053391323855662
279.1041    0.0044367402189894635
280.112     1.0


