PRECURSORMZ: 319.162788572
COMPOUNDNAME: Training-184
FORMULA: C15H21F3N2O2
SMILES: COCCCC\C(=N/OCCN)C1=CC=C(C=C1)C(F)(F)F
INCHIKEY: CJOFXWAVKWHTFT-XSFVSMFZSA-N
PRECURSORTYPE: [M+H]+
IONMODE: positive
CHARGE: 1
PARENTMASS: 318.155512572
NUM PEAKS: 45
53.0024     0.0028186578426325935
53.0388     0.00684994545004155
55.0544     0.026820631215928238
56.0258     0.006762718221794334
57.0701     0.01391167474521392
60.0445     0.003532703183222857
62.0602     0.030344281829154097
71.0492     1.0
87.0804     0.10222642888389555
114.0913    0.0013741191631105247
130.0651    0.006351031617893792
131.073     0.01435555592644452
159.0416    0.0030178701623146753
165.0512    0.0011179052113217955
171.0413    0.0012230447661027788
172.0368    0.013473057064000014
174.0529    0.0012820118657139896
180.0619    0.012804490665017576
183.042     0.002820000509484314
185.0573    0.0036666075196371065
191.0661    0.0010708380841281582
198.0526    0.006598444667368233
199.0604    0.001144748446512053
199.0729    0.002689411774006813
200.0682    0.09726216305957629
209.0571    0.002726662983153638
211.06      0.0027125129347526276
212.0683    0.0024626082434562008
214.0839    0.00135893345607806
224.0683    0.00372456487404318
226.0838    0.056698778818804536
227.0914    0.0027367103651948425
228.0994    0.05038858719999719
240.099     0.0015780780319148001
242.0794    0.001019718360584888
242.0912    0.004222971417929983
244.0944    0.022974571462202414
258.1102    0.12904183568955188
259.118     0.06644464716454411
260.1258    0.06653724154651328
270.11      0.003474422569803743
272.126     0.0011619483734274063
276.121     0.0029616323174684604
302.1366    0.009155110742564605
319.1629    0.39624991435393


