PRECURSORMZ: 314.98532194800003
COMPOUNDNAME: Training-293
FORMULA: C13H9Cl3N2O
SMILES: ClC1=CC=C(NC(=O)NC2=CC=C(Cl)C(Cl)=C2)C=C1
INCHIKEY: ICUTUKXCWQYESQ-UHFFFAOYSA-N
PRECURSORTYPE: [M+H]+
IONMODE: positive
CHARGE: 1
PARENTMASS: 313.97804594800004
NUM PEAKS: 13
65.0387     0.0011001434995299827
92.0494     0.0011290390422409012
93.0573     0.2767021127786967
98.9996     0.0028557906348052713
126.0105    0.08679574451018925
127.0183    0.5664232619878842
128.0261    0.46793325136155
132.9605    0.002328637726127511
154.0054    0.03837979542268779
159.9715    0.04800654665658486
161.9871    0.4749943672929324
187.9664    0.020186793934870582
314.9853    1.0


