PRECURSORMZ: 250.01599917599998
COMPOUNDNAME: Training-124
FORMULA: C6H8ClN5O2S
SMILES: CN=C(NCC1=CN=C(Cl)S1)N[N+]([O-])=O
INCHIKEY: PGOOBECODWQEAB-UHFFFAOYSA-N
PRECURSORTYPE: [M+H]+
IONMODE: positive
CHARGE: 1
PARENTMASS: 249.008723176
NUM PEAKS: 43
57.0449     0.00972960688837915
58.0527     0.0025110539326004965
63.9949     0.004389675895727577
69.0448     0.0010441363009461733
70.9951     0.021475167463769335
78.9403     0.003430981419123564
86.0059     0.02345968032452148
87.0138     0.002782824022034854
96.0556     0.0018506060307014903
109.0634    0.004036811541180161
110.0713    0.15855336897228714
111.0791    0.05561687603147974
112.0089    0.0023089551095203825
113.0168    0.2533956593808193
119.967     0.010601254905170056
121.9825    0.002484692780504321
125.0823    0.0028877972687499647
126.012     0.0011892204199491492
127.0198    0.007614993192334015
131.9669    1.0
132.9748    0.004428382711978363
135.0664    0.001122683207249101
141.0354    0.001061130393480687
142.0434    0.017257403186324655
143.051     0.007294627720559152
145.9701    0.00106780968862851
146.9778    0.03181438038204766
147.9617    0.0022997485135058155
147.9856    0.021849639237830246
148.9935    0.004724854158693634
152.0277    0.0028637277366857375
153.023     0.010960407424969251
167.0387    0.010567361995332116
168.0464    0.23016602862348753
169.0542    0.9994097950158418
172.981     0.012147195819282744
174.9728    0.03141494649744181
186.9967    0.0028652170389822118
203.0154    0.005511326118892256
204.0232    0.024868981513797055
206.0151    0.031423636601414166
220.0182    0.005334771086715303
250.0161    0.08236609918733237


