PRECURSORMZ: 292.2059758
COMPOUNDNAME: Training-208
FORMULA: C21H25N
SMILES: CN(C\C=C\C#CC(C)(C)C)Cc1cccc2ccccc12
INCHIKEY: DOMXUEMWDBAQBQ-WEVVVXLNSA-N
PRECURSORTYPE: [M+H]+
IONMODE: positive
CHARGE: 1
PARENTMASS: 291.1986998
NUM PEAKS: 30
53.0388     0.0024508114116806104
55.0544     0.0013453545367345203
57.07       0.0026831550313096654
77.0386     0.004636768977952997
79.0543     0.01944872510293033
91.0542     0.029589260533509753
93.0699     0.08626937656516302
95.0491     0.01019863968349582
103.0543    0.003185294894006598
105.0446    0.0026038829582588087
105.0699    0.018506525922031718
106.0777    0.001371635113013417
115.0542    0.006085046060308363
119.0855    0.004660214397620938
121.1012    0.00645938392180284
123.0804    0.0020407947900300985
141.0698    1.0
150.1278    0.008710065702686138
165.0698    0.001988462042385974
170.0965    0.018634199153570088
179.0856    0.004576548365583365
190.0777    0.0011968711044396613
191.0859    0.001558761009339239
193.1012    0.0016383130841294425
203.0856    0.0017497858020054016
205.1011    0.010408464179917918
236.143     0.0027487079087329725
249.1638    0.0012991818273560248
261.1638    0.005630365714030323
292.206     0.3290165531156939


