PRECURSORMZ: 194.09642535199998
COMPOUNDNAME: Training-185
FORMULA: C14H11N
SMILES: NC1=CC2=CC3=CC=CC=C3C=C2C=C1
INCHIKEY: YCSBALJAGZKWFF-UHFFFAOYSA-N
PRECURSORTYPE: [M+H]+
IONMODE: positive
CHARGE: 1
PARENTMASS: 193.089149352
NUM PEAKS: 11
128.062     0.0026893575405314307
152.0618    0.00239555438249046
153.0698    0.0273899726981614
165.0698    0.0025141491696534343
167.0855    0.025545431089285503
176.062     0.004255535650437877
177.0698    0.06262972914706742
178.0777    0.027867011649435332
181.0647    0.021755967580777174
193.0887    0.08890590824687257
194.0963    1.0


