PRECURSORMZ: 346.121988468
COMPOUNDNAME: Training-166
FORMULA: C17H19N3O3S
SMILES: COC1=CC=C2N=C(NC2=C1)S(=O)CC1=NC=C(C)C(OC)=C1C
INCHIKEY: SUBDBMMJDZJVOS-UHFFFAOYSA-N
PRECURSORTYPE: [M+H]+
IONMODE: positive
CHARGE: 1
PARENTMASS: 345.114712468
NUM PEAKS: 20
108.081     0.008374922670225795
120.0809    0.020710648620657503
121.0888    0.04799440467192731
122.0964    0.015786702704742302
136.0758    0.4843150732561476
149.0711    0.17785829677728526
150.0916    0.11488502204260397
151.0994    0.3535331678409759
152.0167    0.008932459870419036
165.0246    0.016975621377896533
166.0864    0.019646295332547487
168.1022    0.18116580777236513
179.0275    0.06946952064360168
180.048     0.3028010558872827
181.0557    0.0537401388574734
198.0586    1.0
208.0966    0.0038055341521588417
236.1349    0.003453694321626067
328.1126    0.004677430548957451
346.1228    0.0365282525858266


