PRECURSORMZ: 215.07027018
COMPOUNDNAME: Training-231
FORMULA: C13H10O3
SMILES: OC1=CC(O)=C(C=C1)C(=O)C1=CC=CC=C1
INCHIKEY: ZXDDPOHVAMWLBH-UHFFFAOYSA-N
PRECURSORTYPE: [M+H]+
IONMODE: positive
CHARGE: 1
PARENTMASS: 214.06299418
NUM PEAKS: 7
77.0388     0.009224868679274226
81.0336     0.01968250971016491
95.0493     0.006686240223697223
105.0336    0.24014609545662674
109.0289    0.0020450542045334892
137.0234    1.0
215.0705    0.6721368907163746


