PRECURSORMZ: 313.14343512
COMPOUNDNAME: Training-296
FORMULA: C19H20O4
SMILES: CCCCOC(=O)C1=CC=CC=C1C(=O)OCC1=CC=CC=C1
INCHIKEY: IRIAEXORFWYRCZ-UHFFFAOYSA-N
PRECURSORTYPE: [M+H]+
IONMODE: positive
CHARGE: 1
PARENTMASS: 312.13615912
NUM PEAKS: 8
57.0701     0.005059351920616247
65.0387     0.011629324724417387
91.0542     1.0
121.0284    0.004712134190841506
149.0234    0.3965278164418096
163.0389    0.00716539205439607
181.0495    0.006540024931587966
205.086     0.032374985423602023


