PRECURSORMZ: 269.04554742
COMPOUNDNAME: Training-020
FORMULA: C15H10O5
SMILES: OC1=CC=C(C=C1)C1=COC2=CC(O)=CC(O)=C2C1=O
INCHIKEY: TZBJGXHYKVUXJN-UHFFFAOYSA-N
PRECURSORTYPE: [M-H]-
IONMODE: negative
CHARGE: -1
PARENTMASS: 270.05282342
NUM PEAKS: 33
132.0215    0.0038578871567407774
133.0294    0.0448054219731558
135.0087    0.005391949408294502
135.0451    0.008401614030070906
151.0037    0.0035850853370536727
155.0502    0.004123563503185138
157.0296    0.006753027527624244
157.0659    0.002509838742602448
159.0452    0.018464816085288487
161.0247    0.00245499561433463
167.0502    0.0012573947334626784
169.066     0.007027661209252463
171.045     0.0021113993762463122
173.0607    0.002280268864725638
176.0118    0.0012222135900294855
180.0581    0.010927521489854255
181.0659    0.018091440347952313
182.0373    0.001655453636184891
183.0452    0.012867012365631751
195.0451    0.0022280889818952856
196.0531    0.00841467661483562
197.0609    0.00830926000574735
199.0401    0.0065012639377685505
201.0558    0.01456859604315942
213.0556    0.005344306906579832
223.0403    0.0020972940392997327
224.0481    0.01451135740312245
225.0559    0.01128085477872188
227.0351    0.0045581985826649305
240.0424    0.004012059475954088
241.0508    0.00547342499093698
268.0374    0.0019956867636325994
269.0456    1.0


