PRECURSORMZ: 280.154334152
COMPOUNDNAME: Training-260
FORMULA: C15H21NO4
SMILES: CCC1=CC=CC(C)=C1N(C(C)COC)C(=O)C(O)=O
INCHIKEY: LNOOSYCKMKZOJB-UHFFFAOYSA-N
PRECURSORTYPE: [M+H]+
IONMODE: positive
CHARGE: 1
PARENTMASS: 279.147058152
NUM PEAKS: 42
59.0493     0.013492970219455737
73.0649     0.09719020603165124
91.0542     0.010868044549591279
93.0699     0.005533872848892257
105.0699    0.0021136364216388106
108.0808    0.001886304879885053
117.0572    0.0014351037304157638
117.0699    0.00818537233974678
118.0651    0.009731379184499518
119.0729    0.005019948549509612
119.0855    0.010022365395461842
120.0808    0.004260243522112737
129.0699    0.005192783660385929
130.0651    0.0023742793486000416
131.0729    0.047047604464146714
132.0808    0.01735247541682298
133.0886    0.011326232093774645
134.0602    0.005147889534572126
134.0964    0.032232509768192065
144.0808    0.035789960263683765
145.0887    0.010629967358543053
146.0964    0.10796491107180865
147.1041    0.0034615410136461197
148.112     0.07224311122340385
158.0965    0.0023270985343245717
159.1043    0.004954812381805514
160.0757    0.010456468699675628
160.1121    0.017423874456720084
161.1198    0.0016402880819124475
162.0913    0.022994500207996774
174.0914    0.0037356577929883394
174.1278    0.01372777560848627
176.1435    0.04222338981147581
184.1124    0.0037627165144334448
202.1226    0.015215226895131346
204.1384    0.007940743888340186
206.1543    0.0029030352216377897
208.0969    0.004344228280925803
220.1332    0.023893139424193473
234.1489    0.011473675009506601
248.1282    1.0
280.1545    0.07543854141943124


