PRECURSORMZ: 256.05957824
COMPOUNDNAME: Training-131
FORMULA: C9H10ClN5O2
SMILES: [O-][N+](=O)NC1=NCCN1Cc1ccc(Cl)nc1
INCHIKEY: YWTYJOPNNQFBPC-UHFFFAOYSA-N
PRECURSORTYPE: [M+H]+
IONMODE: positive
CHARGE: 1
PARENTMASS: 255.05230224000002
NUM PEAKS: 57
56.0497     0.027472240699749344
57.0449     0.0018087798810760523
71.0604     0.007031038228966881
72.0683     0.0040630447064213
84.0556     0.2392510821883013
90.0338     0.006205896974522056
92.0494     0.0028512412028546697
93.0572     0.0011806100136087965
97.0634     0.011915961149775885
98.0713     0.010569631888560143
99.0553     0.03174345616510898
106.0652    0.00104285054060896
107.0604    0.0011696319098872033
114.0104    0.002833515750779664
119.0602    0.001069584009312247
126.0105    0.062379350160240855
127.0184    0.002357591761271724
128.0075    0.1407938603235443
128.0261    0.12904932874147532
131.0603    0.0023198908523764422
132.0682    0.0011551535025749226
133.0633    0.00501687610194249
133.076     0.0077742595831540974
134.0713    0.005109560835329724
140.0134    0.0024202986470753455
141.0214    0.007337905286103566
146.0585    0.005890877649007364
146.0713    0.01554328337327536
147.0665    0.014862035787231874
148.0869    0.006538353836812594
151.0184    0.015647319433920132
153.0212    0.0024146922963889663
158.0713    0.007696813033563034
159.0662    0.0035573934622753116
159.0792    0.00669893326315309
166.029     0.001953507970668469
167.0248    0.0065575908442081785
167.037     0.012434038071786455
168.0322    0.0022247401777695693
168.0448    0.0011341730080899933
173.0821    0.025284433656743967
174.09      0.10513341781692383
175.0978    0.8747248542775363
176.0819    0.0031046146637607836
180.0323    0.004431019119921841
181.0276    0.006400213142629614
181.0397    0.004154337849195938
193.0402    0.006098797815000131
194.0478    0.009824312484924434
195.0319    0.0037581477363779273
195.0434    0.003401543311311723
208.0514    0.0010063786034998985
209.0588    1.0
210.0666    0.1927449636682883
212.0585    0.16745021837842264
226.0617    0.004091745596335499
256.0595    0.2909070323631725


