PRECURSORMZ: 270.12553256
COMPOUNDNAME: Training-263
FORMULA: C14H20ClNO2
SMILES: CCOCN(C(=O)CCl)c1c(C)cccc1CC
INCHIKEY: VTNQPKFIQCLBDU-UHFFFAOYSA-N
PRECURSORTYPE: [M+H]+
IONMODE: positive
CHARGE: 1
PARENTMASS: 269.11825656
NUM PEAKS: 39
59.0493     0.2156276192246379
75.9948     0.0015377633369928045
76.9788     0.010971851637246085
90.0105     0.06866524903287226
91.0544     0.004980337699165337
93.0701     0.001022082361872806
104.0262    0.0016716883025888175
105.0698    0.0011046394188294595
117.0573    0.0011004201602984594
120.0809    0.00926917576541312
131.0728    0.0019123528629163599
131.0855    0.02965446427441891
132.0807    0.015799851165133993
133.0886    0.0841536744320023
134.0965    0.0038404845015582063
143.0733    0.0017294650355536827
144.0809    0.0016576959345115468
145.0886    0.004048653125094273
146.0965    0.012765550887107796
147.1045    0.00885716204190982
148.1121    0.6336907863210387
149.0962    0.05519381688862839
156.0811    0.0013413766627319358
157.0887    0.0011260693596055278
158.0964    0.006396458492018929
159.1045    0.0017672854402771949
160.1121    0.00500085010760847
170.0964    0.005225026889953257
171.1042    0.002078078665051624
173.0839    0.0017756266433038839
188.1072    0.0063203033083852585
192.0575    0.00752042864886274
194.0732    0.023656319079931938
206.0733    0.027130193806462127
210.068     0.017080198025720656
224.0837    1.0
240.1149    0.007699180629724684
256.11      0.004081149061885748
270.1256    0.1585288731437869


