PRECURSORMZ: 360.1565396439999
COMPOUNDNAME: Training-205
FORMULA: C15H22FN3O6
SMILES: CCCCCOC(=O)NC1=NC(=O)N(C=C1F)[C@@H]1O[C@H](C)[C@@H](O)[C@H]1O
INCHIKEY: GAGWJHPBXLXJQN-UORFTKCHSA-N
PRECURSORTYPE: [M+H]+
IONMODE: positive
CHARGE: 1
PARENTMASS: 359.1492636439999
NUM PEAKS: 8
71.0856     0.05581559253968232
113.0146    0.007763496819002795
130.0412    0.6629589768698437
156.0201    0.005938596537073223
174.0311    0.7490170324111295
244.1094    1.0
360.157     0.006572042585298132
372.0136    0.003980947031989197


