PRECURSORMZ: 358.237669852
COMPOUNDNAME: Training-187
FORMULA: C22H31NO3
SMILES: CCN(CC)CC#CCOC(=O)C(O)(C1CCCCC1)C1=CC=CC=C1
INCHIKEY: XIQVNETUBQGFHX-UHFFFAOYSA-N
PRECURSORTYPE: [M+H]+
IONMODE: positive
CHARGE: 1
PARENTMASS: 357.230393852
NUM PEAKS: 70
53.0388     0.005630655341693159
54.034      0.06900263435939273
55.0544     0.016784086259994134
56.0497     0.012323618463073657
58.0653     0.06074032666010527
65.0387     0.0010385205429150996
67.0417     0.0011493370570727715
67.0543     0.011343355886264495
68.0496     0.04880984277689229
69.0336     0.04117233903111946
69.07       0.007957429930645916
70.0652     0.014149930379449517
71.0492     0.0010819246317771785
72.0808     0.18221037006799878
73.0887     0.005603040855427124
74.0965     0.0022584386418577147
77.0386     0.0029013788693732865
79.0543     0.04649155898921734
80.0495     0.01199265918974612
81.0574     0.012059263668065203
81.0699     0.017027579440534013
82.0652     0.06288225834295165
83.0729     0.001094422146559557
83.0856     0.01332545404969011
84.0808     0.012397808885128217
86.0964     0.010065853529112394
91.0542     0.029497250381640985
93.0699     0.002225718045557097
94.0651     0.04547398728028006
95.0491     0.005505086885849748
95.073      0.015946962024611322
95.0855     0.0028548463638753707
96.0808     0.057021613410745395
97.0284     0.0983043120406511
98.0965     0.0011412098498807957
99.0804     0.0010548456661192967
105.0335    0.12635970548835976
107.0492    0.05278012508727694
107.0856    0.004519125967770446
108.0808    0.01624945938261394
109.0648    0.0013318121150209827
109.0886    0.0196618347441406
113.0232    0.0032481123113919388
115.0544    0.001178631326479665
117.0699    0.0046414131036408394
122.0923    0.0010991047215287094
122.0965    0.020352168186549766
124.1121    0.13309603788258426
125.12      0.005606190089888211
128.062     0.0030009225311581106
129.0699    0.029765899032571253
141.0697    0.0038437163935693425
142.1227    0.2035795949017749
143.0855    0.006368058604848503
157.0647    0.00431315619938756
166.0778    0.0010147128472456322
171.1168    0.02861602645489033
173.0598    0.004628348482584411
181.101     0.0024943623893511056
183.1042    0.0013648098037542377
185.0596    0.004095393491928599
187.0752    0.004133856577646009
189.1274    0.03689223723109256
199.1119    0.014295287613905088
203.0704    0.002871854527104579
229.1099    0.002294989359076302
258.149     0.008381062624497773
267.1381    0.003813155826102417
340.2275    0.034599807028809916
358.2378    1.0


