PRECURSORMZ: 230.00689787399997
COMPOUNDNAME: Training-126
FORMULA: C5H12NO3PS2
SMILES: CNC(=O)CSP(=S)(OC)OC
INCHIKEY: MCWXGJITAZMZEV-UHFFFAOYSA-N
PRECURSORTYPE: [M+H]+
IONMODE: positive
CHARGE: 1
PARENTMASS: 228.99962187399998
NUM PEAKS: 31
58.9952     0.006544839348931838
61.0108     0.021331703673266755
62.0186     0.010982861108981104
76.0217     0.002786402752500249
78.9944     0.07970987520048456
86.0059     0.001740550203463458
88.0215     0.47482417757087275
93.01       0.027958638945827757
104.0164    0.007691391536245051
110.9661    0.006172560128226653
119.9936    0.020121873519629806
123.9981    0.01811398201240998
124.9821    0.40197999711312676
126.0105    0.0027513545166041042
127.0155    0.00657065093179162
128.0075    0.014121465750647032
128.977     0.015819931244128352
140.9591    0.0037627717500450654
142.9926    1.0
143.9994    0.002571385094806661
144.9968    0.0014371825995019287
155.9701    0.01461442134026779
156.9542    0.10306118852288294
157.0083    0.024559291674276937
158.9699    0.015590631984543529
170.9698    0.5749155157364773
188.9803    0.007592135707186697
197.9807    0.052662674822940556
198.9647    0.8688106879588845
202.9961    0.0012295460671270311
230.007     0.04044842702295184


