PRECURSORMZ: 347.1183355
COMPOUNDNAME: Training-012
FORMULA: C16H20N4O3S
SMILES: CC(C)NC(=O)NS(=O)(=O)c1cnccc1Nc1cccc(C)c1
INCHIKEY: NGBFQHCMQULJNZ-UHFFFAOYSA-N
PRECURSORTYPE: [M-H]-
IONMODE: negative
CHARGE: -1
PARENTMASS: 348.1256115
NUM PEAKS: 16
108.0318    0.02713648094986104
150.9968    0.0046524049198703316
156.0       0.013381691583298048
180.0054    0.002696752493817551
181.0643    0.008429671336038703
181.0771    0.002872466745970506
183.0926    0.008996773530181926
194.0714    0.0023331484293044598
195.0801    0.061015701323531665
196.088     0.05886110989832281
198.1035    0.019695550921571905
210.0672    0.008556254252730088
226.0449    0.004589810740303024
244.055     0.012046509996349477
262.0656    1.0
347.1189    0.019181871009218775


