PRECURSORMZ: 293.105131464
COMPOUNDNAME: Training-181
FORMULA: C15H17ClN2O2
SMILES: CC(C)(C)C(=O)C(N1C=CN=C1)Oc1ccc(Cl)cc1
INCHIKEY: OWEGWHBOCFMBLP-UHFFFAOYSA-N
PRECURSORTYPE: [M+H]+
IONMODE: positive
CHARGE: 1
PARENTMASS: 292.097855464
NUM PEAKS: 35
53.0024     0.0028372050575040117
55.0544     0.0044208721564216735
57.0701     0.16291487618485465
67.0543     0.01125107481599578
69.07       0.7315819264409601
70.0778     0.03907554728288438
81.0448     0.005386208949250708
82.0526     0.04663495343461012
85.0648     0.0028903817551770784
87.0804     0.0010848257088733448
95.0491     0.001037746428164292
95.0603     0.0029406201627081266
98.9997     0.010415240526633337
103.0309    0.008896544353830634
109.0397    0.0472177724276928
110.9998    0.0011436163074111053
113.0153    0.01696556640098697
115.0754    0.10014570726658369
124.0631    0.0032665774269517206
125.0151    0.001060611160630185
126.9946    0.06715693804379677
129.0102    0.10891586795076144
137.1073    0.03090669620826055
139.0057    0.006649875175359822
141.0102    0.15661856673306335
155.0258    0.061378645579661724
159.0206    0.002749269441268012
161.0961    0.007422214657468207
162.1041    0.0010510733406517833
165.1023    0.00482420749386725
166.1102    0.033735449032413
190.0986    0.0036759171974960563
197.0729    0.42677988630056934
225.0677    0.01846444151317975
293.1053    1.0


