PRECURSORMZ: 328.12241783599995
COMPOUNDNAME: Training-047
FORMULA: C15H23NO5S
SMILES: CCC1=CC=CC(C)=C1N(C(C)COC)C(=O)CS(O)(=O)=O
INCHIKEY: CIGKZVUEZXGYSV-UHFFFAOYSA-N
PRECURSORTYPE: [M-H]-
IONMODE: negative
CHARGE: -1
PARENTMASS: 329.12969383599994
NUM PEAKS: 12
120.9595    0.24672906154193724
134.0974    0.001469182419459231
135.0815    0.04462644112294362
158.0976    0.003411627689222872
174.129     0.005483408739883551
177.0103    0.002648566687425933
192.0336    0.02743682504517787
206.1553    0.003205558668943977
238.0542    0.00167488625828767
256.0652    0.007957771565954683
296.0963    0.007193766836813868
328.1225    1.0


