PRECURSORMZ: 429.05376480800004
COMPOUNDNAME: Training-034
FORMULA: C18H14F4N2O4S
SMILES: CC(O)(CS(=O)(=O)c1ccc(F)cc1)C(=O)Nc1ccc(C#N)c(c1)C(F)(F)F
INCHIKEY: LKJPYSCBVHEWIU-UHFFFAOYSA-N
PRECURSORTYPE: [M-H]-
IONMODE: negative
CHARGE: -1
PARENTMASS: 430.06104080800003
NUM PEAKS: 15
95.0288     0.007975000814359796
111.0242    0.00942827186210569
137.0407    0.0011822485178427354
157.9844    0.0016749743330841946
158.9923    0.028584118610988446
173.0079    0.06574158833632171
184.038     0.20030899906611102
185.0332    0.6666516656955669
212.0329    0.0010607765465814253
227.0439    0.008084268605743341
243.0132    0.018879601547884848
251.0439    0.0037694179943273893
255.0387    1.0
411.0432    0.013616297713071296
429.0538    0.0555331373545448


