PRECURSORMZ: 213.05571818
COMPOUNDNAME: Training-027
FORMULA: C13H10O3
SMILES: OC1=CC(O)=C(C=C1)C(=O)C1=CC=CC=C1
INCHIKEY: ZXDDPOHVAMWLBH-UHFFFAOYSA-N
PRECURSORTYPE: [M-H]-
IONMODE: negative
CHARGE: -1
PARENTMASS: 214.06299418
NUM PEAKS: 10
135.0086    0.263212242952308
141.0711    0.005980326701277204
143.0502    0.005789336215567238
153.0193    0.04437444092182101
154.0425    0.0020897719017147977
167.0351    0.006131621533955797
167.0501    0.0013589357668776876
169.0659    0.11857504029692012
171.0451    0.007510555444120722
213.0556    1.0


