PRECURSORMZ: 119.060374192
COMPOUNDNAME: Training-132
FORMULA: C7H6N2
SMILES: c1n[nH]c2ccccc12
INCHIKEY: BAXOFTOLAUCFNW-UHFFFAOYSA-N
PRECURSORTYPE: [M+H]+
IONMODE: positive
CHARGE: 1
PARENTMASS: 118.053098192
NUM PEAKS: 4
59.0493     0.0019111145775446226
65.0387     0.007446828924908343
92.0495     0.05557988596137007
119.0604    1.0


