PRECURSORMZ: 223.153999804
COMPOUNDNAME: Training-130
FORMULA: C10H22O5
SMILES: COCCOCCOCCOCCOC
INCHIKEY: ZUHZGEOKBKGPSW-UHFFFAOYSA-N
PRECURSORTYPE: [M+H]+
IONMODE: positive
CHARGE: 1
PARENTMASS: 222.146723804
NUM PEAKS: 7
59.0493     1.0
73.0649     0.0016751196693638739
89.0597     0.027624071073846856
103.0754    0.7399183064399434
133.086     0.00934228555736279
147.1016    0.05252251909024662
223.1542    0.004644902896166025


