PRECURSORMZ: 285.07891671600004
COMPOUNDNAME: Training-244
FORMULA: C16H13ClN2O
SMILES: CN1c2ccc(Cl)cc2C(=NCC1=O)c1ccccc1
INCHIKEY: AAOVKJBEBIDNHE-UHFFFAOYSA-N
PRECURSORTYPE: [M+H]+
IONMODE: positive
CHARGE: 1
PARENTMASS: 284.07164071600005
NUM PEAKS: 46
58.0289     0.003607446820984221
91.0542     0.019703692118023163
104.0494    0.0023386909124829772
105.0335    0.020975409002420505
116.0493    0.0035596816045550643
117.0572    0.00575097166761643
118.065     0.003413001519002898
119.0729    0.0016616362234065961
125.0152    0.0029190997008078567
140.026     0.0016978543759401934
141.0339    0.0038195410977146533
143.0602    0.0015307531112324362
144.0681    0.0014188375913626182
147.0678    0.005081702990815706
150.0106    0.002574178011941415
152.0261    0.002948189062689351
154.0417    0.13228143118584412
165.0699    0.0015625534543345905
167.0132    0.011795262690879979
172.0631    0.011347204979752936
179.0369    0.01098149059830785
180.021     0.009935681240035927
182.0366    0.025184131978042472
192.0808    0.0018707583927525995
193.0885    0.0879829869300743
194.0967    0.0020347845838088645
204.0809    0.0026282932786515045
205.0882    0.0022164333123294517
206.0837    0.00200412800113274
207.0319    0.0012357111577660645
207.0914    0.003152885537799677
216.0574    0.0058395843442889195
220.0995    0.0016646009097988042
221.1072    0.008458552682402979
222.115     0.07935473841855836
226.0415    0.0029179656804341164
227.0494    0.007687012528935376
228.0573    0.05558718805024338
230.0727    0.0033100992579972507
240.0568    0.002680871008535848
241.0526    0.016219807600387288
242.0601    0.004202300106854867
255.0684    0.007214627413872521
256.0763    0.0011344549655973933
257.0839    0.07033891003583077
285.0788    1.0


