PRECURSORMZ: 223.07450003199997
COMPOUNDNAME: Training-142
FORMULA: C10H11ClN4
SMILES: CN(Cc1ccc(Cl)nc1)C(C)=NC#N
INCHIKEY: WCXDHFDTOYPNIE-UHFFFAOYSA-N
PRECURSORTYPE: [M+H]+
IONMODE: positive
CHARGE: 1
PARENTMASS: 222.06722403199998
NUM PEAKS: 19
56.0497     0.3591205954747911
63.0231     0.0015559544812600266
72.9839     0.0026879203082676765
73.0761     0.001579886993405969
81.0335     0.0017630075879111209
90.0338     0.029027708286972462
91.0417     0.0026474063607358203
98.9996     0.010544755391557255
126.0105    1.0
144.021     0.009478822596276682
146.0712    0.0022261587551384815
155.0371    0.0030445384347987975
168.0321    0.0015344266741910664
181.0526    0.01206089830764032
182.0482    0.003472223838287462
187.0979    0.019412778656109235
196.0636    0.010189738987687037
206.048     0.009237836361758789
223.0745    0.5955383509250115


