PRECURSORMZ: 74.096425352
COMPOUNDNAME: Training-062
FORMULA: C4H11N
SMILES: CCCCN
INCHIKEY: HQABUPZFAYXKJW-UHFFFAOYSA-N
PRECURSORTYPE: [M+H]+
IONMODE: positive
CHARGE: 1
PARENTMASS: 73.08914935199999
NUM PEAKS: 6
53.0024     0.014211901902556839
53.9977     0.003845017915397674
55.0544     0.0029530682009254235
56.0496     0.0025237459045745645
57.07       1.0
74.0965     0.43462220074109875


