PRECURSORMZ: 103.061436812
COMPOUNDNAME: Training-066
FORMULA: C2H6N4O
SMILES: NC(=N)NC(N)=O
INCHIKEY: SQSPRWMERUQXNE-UHFFFAOYSA-N
PRECURSORTYPE: [M+H]+
IONMODE: positive
CHARGE: 1
PARENTMASS: 102.05416081199999
NUM PEAKS: 5
60.0558     1.0
61.0398     0.00613450387965625
69.0084     0.003241830384599817
86.0349     0.1938581543384073
103.0614    0.1558409048788081


