PRECURSORMZ: 150.03719622399998
COMPOUNDNAME: Training-195
FORMULA: C8H7NS
SMILES: CC1=NC2=CC=CC=C2S1
INCHIKEY: DXYYSGDWQCSKKO-UHFFFAOYSA-N
PRECURSORTYPE: [M+H]+
IONMODE: positive
CHARGE: 1
PARENTMASS: 149.029920224
NUM PEAKS: 13
59.0493     0.013038878239249924
65.0387     0.005728083892601253
92.0496     0.017568509854091377
105.0336    0.012386086698957383
107.0494    0.004648535033361827
109.0108    0.04028977587176514
110.0601    0.04534211162346843
117.0573    0.01620794865821024
120.0445    0.1609763924914728
124.0217    0.013406772479721375
134.0061    0.004034828577176972
134.0599    0.003886022714791079
152.0167    1.0


