PRECURSORMZ: 275.04848918
COMPOUNDNAME: Training-116
FORMULA: C13H10N2O3S
SMILES: OS(=O)(=O)C1=CC=C2N=C(NC2=C1)C1=CC=CC=C1
INCHIKEY: UVCJGUGAGLDPAA-UHFFFAOYSA-N
PRECURSORTYPE: [M+H]+
IONMODE: positive
CHARGE: 1
PARENTMASS: 274.04121318
NUM PEAKS: 11
80.0495     0.0015291002744959642
92.0494     0.0011882787075873217
108.0444    0.005895210522322971
182.0839    0.0034475920113475806
193.0761    0.008182882971999268
194.0839    0.13662698674262844
195.0917    0.036381848443749566
210.0787    0.003748793286352778
211.0866    0.023460767444528
226.0737    0.029071843600153333
275.0484    1.0


