PRECURSORMZ: 229.085920244
COMPOUNDNAME: Training-271
FORMULA: C14H12O3
SMILES: COc1ccc(C(=O)c2ccccc2)c(O)c1
INCHIKEY: DXGLGDHPHMLXJC-UHFFFAOYSA-N
PRECURSORTYPE: [M+H]+
IONMODE: positive
CHARGE: 1
PARENTMASS: 228.078644244
NUM PEAKS: 15
53.0388     0.002264887749764141
65.0387     0.0017998458742022035
67.0543     0.001702594247132516
77.0386     0.013444486943800687
81.0335     0.0011714363329972392
94.0413     0.0021934506357639853
95.0491     0.04939834572537776
105.0335    0.4547513337991477
108.0204    0.00301831199394068
123.0441    0.006034104464583451
141.0547    0.0010403777324550652
151.0389    1.0
168.0567    0.0011890483432127573
211.0753    0.0010438823844318823
229.0859    0.8437456931436385


