PRECURSORMZ: 253.05063280000002
COMPOUNDNAME: Training-015
FORMULA: C15H10O4
SMILES: OC1=CC=C(C=C1)C1=COC2=CC(O)=CC=C2C1=O
INCHIKEY: ZQSIJRDFPHDXIC-UHFFFAOYSA-N
PRECURSORTYPE: [M-H]-
IONMODE: negative
CHARGE: -1
PARENTMASS: 254.0579088
NUM PEAKS: 21
132.0214    0.003133370074650852
133.0293    0.010990034749901791
135.0087    0.011405784396864337
153.0191    0.0013059359321005925
160.0165    0.0012072314721162454
169.066     0.004937428537532134
180.0579    0.004130254477507595
181.0658    0.002645189490167309
183.0446    0.0013637944277887842
195.0454    0.002342607035568864
196.053     0.006762834946743249
197.0609    0.00944802299025901
208.053     0.013825305325190924
209.0607    0.019741493507318908
210.032     0.0012936030763438576
211.04      0.0019602166285029093
223.0399    0.007117120818405282
224.0479    0.025233692484251773
225.0557    0.012419439213699488
252.043     0.007051873958516813
253.0506    1.0


