PRECURSORMZ: 189.10223900399998
COMPOUNDNAME: Training-125
FORMULA: C11H12N2O
SMILES: CN1N(C(=O)C=C1C)c1ccccc1
INCHIKEY: VEQOALNAAJBPNY-UHFFFAOYSA-N
PRECURSORTYPE: [M+H]+
IONMODE: positive
CHARGE: 1
PARENTMASS: 188.094963004
NUM PEAKS: 41
56.0496     0.02420184613444692
58.0653     0.024093504933679732
65.0387     0.0016695768262054152
70.0652     0.0016061892897640327
77.0388     0.0017768142615006912
91.0542     0.0054467015793207875
93.0335     0.0011593002849407824
95.0492     0.0013543728057808005
95.0604     0.0013287177946460088
96.0444     0.0022150778829649956
96.0682     0.01022279630245271
98.0601     0.0032662884915841224
103.0542    0.0011798908043395824
104.0494    0.018872988460376765
105.0698    0.001489679211654575
106.0651    0.009371457194986265
111.0553    0.001256580680129046
117.0572    0.0023652801790364024
117.0699    0.004280930387911177
118.0651    0.011311131485153893
120.0807    0.010173658602527672
130.0651    0.011406379186620779
131.0729    0.02055356966194034
132.0807    0.008472746364118882
133.052     0.0015696955766115199
133.0759    0.0035664497585442493
134.0964    0.0013643527555928232
144.0807    0.01798173341213886
145.0647    0.007079351578371602
145.0757    0.0015824049163320208
146.0838    0.018570422397854933
146.0963    0.005915913318396399
147.0916    0.025568672897026055
148.0758    0.002208851507452802
149.0709    0.0015177378125771214
157.0521    0.001556387449548489
158.0601    0.001272216674375903
161.1073    0.018297263956148568
172.0756    0.005479264710557919
174.0787    0.011314002432923857
189.1022    1.0


