PRECURSORMZ: 326.232584472
COMPOUNDNAME: Training-147
FORMULA: C18H31NO4
SMILES: CC(C)NCC(O)COc1ccc(COCCOC(C)C)cc1
INCHIKEY: VHYCDWMUTMEGQY-UHFFFAOYSA-N
PRECURSORTYPE: [M+H]+
IONMODE: positive
CHARGE: 1
PARENTMASS: 325.225308472
NUM PEAKS: 32
56.0497     0.0852547115685709
58.0653     0.013247439273737501
60.0809     0.002137069040982418
69.07       0.0010980291248507586
72.0808     0.09854170273979682
74.0601     0.27624937237574004
75.0441     0.006316701949240912
79.0542     0.0029843135873035952
84.0808     0.003109146100322701
89.0386     0.007025451585778016
91.0542     0.022631941611083516
98.0964     0.07198969568225361
100.1122    0.0022850433909140833
105.0699    0.00915335993971722
107.0491    0.0386064571015444
116.107     0.5966934228062653
117.0699    0.0018599424407815782
119.0491    0.015129102117455783
119.0856    0.0023845027952899833
121.0648    0.010333655685716621
129.0699    0.0011025802443164815
133.0648    0.03145786136985213
134.06      0.002092096533046008
137.0597    0.006452623936991538
145.0648    0.0179821231689954
147.0804    0.02723520221552328
162.0913    0.01665838069277378
163.0753    0.006797485873151642
180.1016    0.0010497395359321156
204.1384    0.01507100710459093
222.1488    0.02649552930995653
326.2327    1.0


