PRECURSORMZ: 287.058181272
COMPOUNDNAME: Training-221
FORMULA: C15H11ClN2O2
SMILES: OC1N=C(c2ccccc2)c2cc(Cl)ccc2NC1=O
INCHIKEY: ADIMAYPTOBDMTL-UHFFFAOYSA-N
PRECURSORTYPE: [M+H]+
IONMODE: positive
CHARGE: 1
PARENTMASS: 286.050905272
NUM PEAKS: 29
79.0542     0.001595158709298221
93.0573     0.023472796711546486
95.0491     0.0016947395715887568
104.0494    0.1458319516184512
118.0525    0.0026848423827662946
128.0261    0.06501644487540355
138.0105    0.009228830528972613
153.0213    0.03177294420464671
156.0209    0.00831843039807941
163.0057    0.03956695504853828
166.0054    0.02855333791837307
181.0163    0.002028026103690238
195.032     0.0013250329132533747
195.0916    0.005786289509909004
205.0753    0.0031997876655691505
206.0841    0.0013499762205527314
207.0678    0.006802414975758873
214.0416    0.00363614181075887
216.0577    0.00487723514248158
229.0525    0.005512261643719361
231.0683    0.11506821732959575
239.0368    0.001633003477478552
241.0526    1.0
242.0363    0.010143068339414167
257.0477    0.011113234212166243
258.0545    0.002782914895335017
259.0631    0.0014964809251228797
269.0475    0.5207953938573174
287.0581    0.759911225972488


