PRECURSORMZ: 204.99299417199998
COMPOUNDNAME: Training-196
FORMULA: C7H6Cl2N2O
SMILES: NC(=O)Nc1ccc(Cl)c(Cl)c1
INCHIKEY: CYESCLHCWJKRKM-UHFFFAOYSA-N
PRECURSORTYPE: [M+H]+
IONMODE: positive
CHARGE: 1
PARENTMASS: 203.985718172
NUM PEAKS: 9
125.003     0.0011019815198283916
126.0108    0.001071330794804585
127.0183    0.6141003577996186
132.9605    0.002754810454825363
159.9715    0.11262913969883463
161.9871    0.6414258187323025
172.9663    0.0010903107524814228
187.9664    0.08213195220624543
204.993     1.0


