PRECURSORMZ: 212.08366774799998
COMPOUNDNAME: Training-217
FORMULA: C11H14ClNO
SMILES: CC(C)N(C(=O)CCl)c1ccccc1
INCHIKEY: MFOUDYKPLGXPGO-UHFFFAOYSA-N
PRECURSORTYPE: [M+H]+
IONMODE: positive
CHARGE: 1
PARENTMASS: 211.076391748
NUM PEAKS: 15
76.9789     0.011708607583407197
77.0384     0.003975067803175591
79.0542     0.005137415284504306
91.0542     0.008301086910344925
93.0573     0.0014370154629315154
94.0651     0.13853382695813374
95.0491     0.03511075978467443
105.0447    0.0011522516726505925
106.0651    0.11363601905625093
134.06      0.015213728198468085
134.0965    0.004740584693000399
152.0262    0.05977229821435235
170.0367    1.0
194.0727    0.0028296110301272042
212.0837    0.35856672138748547


