PRECURSORMZ: 292.02656385999995
COMPOUNDNAME: Training-110
FORMULA: C8H10ClN5O3S
SMILES: CN1COCN(CC2=CN=C(Cl)S2)\C1=N\[N+]([O-])=O
INCHIKEY: NWWZPOKUUAIXIW-DHZHZOJOSA-N
PRECURSORTYPE: [M+H]+
IONMODE: positive
CHARGE: 1
PARENTMASS: 291.01928785999996
NUM PEAKS: 54
57.0449     0.00456208736370347
67.0418     0.004711856104027792
69.0448     0.10196480045980896
70.0527     0.0012785248167699536
70.9951     0.02321354690641357
72.0683     0.001181020683431731
81.0448     0.0014649834108450505
87.9949     0.0015155241327961455
96.0556     0.0013914343042360142
98.0059     0.0035660206116862265
99.0012     0.02873558911827964
99.0554     0.0038835442916885224
100.0632    0.00329370656407591
108.0556    0.018450044003909333
110.0713    0.0013900492174159819
112.0215    0.0073929357782075425
113.0168    0.007253739535121018
122.0713    0.11214398286398487
123.0791    0.012317796312918813
125.0168    0.028078699238062745
126.0246    0.0033540226109942807
131.9669    0.7453648916563167
138.012     0.01747299977519742
139.0324    0.014494226081244609
140.0277    0.0012125388820774946
144.0642    0.0011081192792924937
144.9746    0.0025449226503745912
145.97      0.003255531976971287
146.9778    0.00320634644788008
147.0665    0.00480821430222714
151.0199    0.03467436309921446
152.0277    0.1023102949218532
154.0433    0.007547328117700891
155.0511    0.003951971566459455
160.9934    0.008660997708926895
165.0232    0.003241003512341024
165.0771    0.003287329185911734
172.9809    0.003972140024903662
174.9728    0.03295738356900403
179.0386    0.00520378114751354
180.0464    0.09078528643196852
181.0542    0.4265117275998578
185.9887    0.002875290768585673
186.9968    0.0030766764134262945
199.0649    0.01809831166884826
210.057     0.17028535379302537
211.0648    1.0
215.0155    0.007659799160418164
216.0232    0.0016228035911016443
245.0259    0.010561795200066325
246.0338    0.0483149272899172
248.0252    0.010584385069282243
262.0166    0.0014709123796070578
292.0266    0.06238165977644101


