PRECURSORMZ: 188.06974899999997
COMPOUNDNAME: Training-136
FORMULA: C6H10ClN5
SMILES: CC(C)Nc1nc(N)nc(Cl)n1
INCHIKEY: DFWFIQKMSFGDCQ-UHFFFAOYSA-N
PRECURSORTYPE: [M+H]+
IONMODE: positive
CHARGE: 1
PARENTMASS: 187.06247299999998
NUM PEAKS: 10
61.9795     0.0021264591213727303
68.0244     0.027293681672072256
79.0058     0.07144305896865615
86.0348     0.006008173840430385
104.001     0.07216649703928857
110.0461    0.049036442217016224
110.0713    0.0031993524424746853
128.0567    0.008151711812856052
146.0227    0.6937331799686122
188.0697    1.0


