PRECURSORMZ: 167.99361715999999
COMPOUNDNAME: Training-167
FORMULA: C7H5NS2
SMILES: SC1=NC2=CC=CC=C2S1
INCHIKEY: YXIWHUQXZSMYRE-UHFFFAOYSA-N
PRECURSORTYPE: [M+H]+
IONMODE: positive
CHARGE: 1
PARENTMASS: 166.98634116
NUM PEAKS: 10
65.0386     0.001960163067085338
92.0495     0.01652514550933427
104.0495    0.001634492896999218
109.0106    0.01265102496049545
110.0185    0.004578782843971026
124.0215    0.022456192011653255
135.0137    0.02943106295929022
136.0215    0.020157142380242504
140.9824    0.0020435463576852727
167.9936    1.0


