PRECURSORMZ: 172.042675528
COMPOUNDNAME: Training-113
FORMULA: C7H9NO2S
SMILES: CC1=CC=C(C=C1)S(N)(=O)=O
INCHIKEY: LMYRWZFENFIFIT-UHFFFAOYSA-N
PRECURSORTYPE: [M+H]+
IONMODE: positive
CHARGE: 1
PARENTMASS: 171.035399528
NUM PEAKS: 17
55.0181     0.01523338650072892
55.0544     0.004438877828746263
65.0387     0.10484162506697461
67.0543     0.05559623851452133
72.0444     0.006319508123816877
79.0542     0.0046530841493507185
81.0698     0.004548651540289623
89.0708     0.008202527859471658
91.0542     1.0
93.0698     0.004519275476637175
95.0492     0.027713294116522617
109.0648    0.7639260813905308
111.0441    0.004098171712509256
119.0604    0.8980531119230836
130.9819    0.004993368599602284
155.0161    0.643454141575198
158.9883    0.005169765536845455


