PRECURSORMZ: 144.08077528799998
COMPOUNDNAME: Training-108
FORMULA: C10H9N
SMILES: NC1=CC=CC2=CC=CC=C12
INCHIKEY: RUFPHBVGCFYCNW-UHFFFAOYSA-N
PRECURSORTYPE: [M+H]+
IONMODE: positive
CHARGE: 1
PARENTMASS: 143.073499288
NUM PEAKS: 8
103.0542    0.009217138652153638
115.054     0.0013439715425351652
117.0699    0.02784870089545982
127.0542    0.006967536455893198
128.0622    0.0023116408096658927
143.0729    0.033474452945957425
144.0807    1.0
155.0603    0.028176563090700674


