PRECURSORMZ: 216.10104912799997
COMPOUNDNAME: Training-211
FORMULA: C8H14ClN5
SMILES: CCNc1nc(Cl)nc(NC(C)C)n1
INCHIKEY: MXWJVTOOROXGIU-UHFFFAOYSA-N
PRECURSORTYPE: [M+H]+
IONMODE: positive
CHARGE: 1
PARENTMASS: 215.09377312799998
NUM PEAKS: 17
68.0244     0.028408312373165802
71.0604     0.01645140746257681
79.0058     0.07999704125723275
85.076      0.0013716198240770437
90.0105     0.002534901181456595
96.0556     0.11142916900715989
104.001     0.07576626047639416
110.0461    0.006865325132527421
132.0323    0.079724555870958
138.0774    0.02072828866087341
138.1025    0.013529904043948784
146.0228    0.05856543518543829
146.0479    0.010657107027177698
174.0541    0.6166816496733063
180.125     0.0021834551897734144
188.0698    0.0036051996679740063
216.1011    1.0


