PRECURSORMZ: 95.060374192
COMPOUNDNAME: Training-088
FORMULA: C5H6N2
SMILES: CC1=CC=NC=N1
INCHIKEY: LVILGAOSPDLNRM-UHFFFAOYSA-N
PRECURSORTYPE: [M+H]+
IONMODE: positive
CHARGE: 1
PARENTMASS: 94.053098192
NUM PEAKS: 4
67.0543     0.00372811844760725
68.0495     0.030647046502826198
78.0338     0.003779060756789781
95.0603     1.0


