PRECURSORMZ: 282.048066524
COMPOUNDNAME: Training-301
FORMULA: C11H17Cl2NOS
SMILES: CCCCCCCCN1SC(Cl)=C(Cl)C1=O
INCHIKEY: PORQOHRXAJJKGK-UHFFFAOYSA-N
PRECURSORTYPE: [M+H]+
IONMODE: positive
CHARGE: 1
PARENTMASS: 281.040790524
NUM PEAKS: 10
53.0024     0.0032537152641448318
55.0544     0.00227098240700306
57.0701     0.23639820905193937
69.07       0.0024058256378445917
71.0856     0.2507660736600749
126.9169    0.005391306432587502
134.954     0.007426181809862793
151.9123    0.003778739211465201
169.9228    1.0
282.0482    0.5426088401173311


