PRECURSORMZ: 240.10300272
COMPOUNDNAME: Training-057
FORMULA: C15H15NO2
SMILES: Cc1cccc(Nc2ccccc2C(O)=O)c1C
INCHIKEY: HYYBABOKPJLUIN-UHFFFAOYSA-N
PRECURSORTYPE: [M-H]-
IONMODE: negative
CHARGE: -1
PARENTMASS: 241.11027872
NUM PEAKS: 6
179.0865    0.013005914115012205
180.0818    0.029607561791216423
192.0818    0.030208350966854355
194.0974    0.02146216484554379
196.1131    1.0
240.1029    0.5423784563380585


