PRECURSORMZ: 196.075689908
COMPOUNDNAME: Training-183
FORMULA: C13H9NO
SMILES: O=c1cccc2[nH]c3ccccc3cc12
INCHIKEY: DSTNUFDTTMKLQR-UHFFFAOYSA-N
PRECURSORTYPE: [M+H]+
IONMODE: positive
CHARGE: 1
PARENTMASS: 195.068413908
NUM PEAKS: 3
167.0728    0.004637892968543179
195.0681    0.0023597679828115388
196.0758    1.0


