PRECURSORMZ: 249.01920891999998
COMPOUNDNAME: Training-237
FORMULA: C9H10Cl2N2O2
SMILES: CON(C)C(=O)Nc1ccc(Cl)c(Cl)c1
INCHIKEY: XKJMBINCVNINCA-UHFFFAOYSA-N
PRECURSORTYPE: [M+H]+
IONMODE: positive
CHARGE: 1
PARENTMASS: 248.01193292
NUM PEAKS: 30
58.029      0.001082677586832726
60.0446     0.1360321335307185
62.0602     0.1902831914281029
88.0393     0.03801149549497809
106.0499    0.01296933608957196
120.0655    0.008399846293473668
123.9948    0.018252300497014665
125.0027    0.05675540435118944
127.0185    0.0023051397603417513
132.9606    0.14944000206050376
140.0263    0.0012636423358454855
142.0056    0.00316149884518589
147.0553    0.0021942664594071944
153.0214    0.054648383411383096
154.029     0.005906548598290689
157.0291    0.001025036065112926
159.9716    1.0
160.9794    0.21997598241065336
165.0215    0.009074365293056278
167.0007    0.0021617735370360433
174.9951    0.0035559496038064407
176.9744    0.0011699309781624386
181.0163    0.038798126805617165
182.0241    0.768657382812628
187.9664    0.013411765035568879
188.9983    0.001018730810299395
191.998     0.00816490352535062
216.9931    0.06328336296881813
218.001     0.024261170550010917
249.0193    0.6911303626310265


