PRECURSORMZ: 284.14118262399995
COMPOUNDNAME: Training-270
FORMULA: C15H22ClNO2
SMILES: CCc1cccc(C)c1N(C(C)COC)C(=O)CCl
INCHIKEY: WVQBLGZPHOPPFO-UHFFFAOYSA-N
PRECURSORTYPE: [M+H]+
IONMODE: positive
CHARGE: 1
PARENTMASS: 283.13390662399996
NUM PEAKS: 37
73.0649     0.029610486254056056
76.9789     0.008538339557019277
91.0542     0.0035856496561427263
108.0809    0.0021533384767631375
109.0648    0.0011701033872096118
117.0699    0.003098545310873064
118.0652    0.0015146206553903324
119.0857    0.003590302983215168
120.0807    0.0038932063074729266
130.0653    0.0011508370602008402
131.0731    0.002272005596464447
131.0856    0.0019038631847348646
132.0808    0.003348147384984265
133.0886    0.010022502181865052
134.0964    0.03870423445848206
135.0804    0.0023187742329696115
136.112     0.0011209104225014734
143.0728    0.002489653732775107
144.0809    0.0027364241381633045
145.0885    0.00519868960465537
146.0964    0.01679858200852325
147.1041    0.002523718986554742
148.112     0.004589083436635455
158.0965    0.00942679230071458
159.1043    0.004557323008329911
160.1121    0.015583812504901432
162.0911    0.003284626831679594
174.1281    0.0024009375152866433
176.1434    0.2231258866253225
184.0525    0.011523426126009307
194.0732    0.006761405255518915
202.123     0.0012005641475119361
212.0837    0.016885891794149184
224.0828    0.0010023297451294327
224.1202    0.001720867200123613
252.115     1.0
284.1413    0.1667307654231071


