PRECURSORMZ: 231.101570308
COMPOUNDNAME: Training-239
FORMULA: C14H14O3
SMILES: COc1ccc2cc(ccc2c1)C(C)C(O)=O
INCHIKEY: CMWTZPSULFXXJA-UHFFFAOYSA-N
PRECURSORTYPE: [M+H]+
IONMODE: positive
CHARGE: 1
PARENTMASS: 230.094294308
NUM PEAKS: 23
56.0496     0.0018405651402943614
115.054     0.003615039601396751
128.0619    0.0021427971761833553
129.0698    0.004826771425360491
141.0698    0.0018025937263684887
142.0776    0.004782301284439032
143.0492    0.0014095208745786528
152.0617    0.0026004646256030366
153.0698    0.03674963361708621
154.0776    0.04158792604849205
155.0854    0.031724813977375636
156.0569    0.004384618459541753
157.0648    0.0037461882315632682
158.0726    0.024490065900625788
169.0646    0.006165265729609135
170.0725    0.13633221115436003
171.0803    0.002491187843995683
181.0762    0.002939517545502673
184.0882    0.0017257320452738628
185.096     1.0
189.102     0.004605484862756703
201.1023    0.001249601143084848
231.1016    0.06865054542578755


