PRECURSORMZ: 357.1267395
COMPOUNDNAME: Training-162
FORMULA: C19H20N2O3S
SMILES: CCC1=CC=C(CCOC2=CC=C(CC3SC(=O)NC3=O)C=C2)N=C1
INCHIKEY: HYAFETHFCAUJAY-UHFFFAOYSA-N
PRECURSORTYPE: [M+H]+
IONMODE: positive
CHARGE: 1
PARENTMASS: 356.1194635
NUM PEAKS: 21
79.0542     0.004707872215354986
91.0543     0.001552301435972647
93.0572     0.002045069229032205
95.0491     0.0013218713233490134
96.0444     0.0014890556231292686
104.0494    0.0023754382781182417
106.0651    0.014042676636525673
107.0729    0.0022144562749598215
108.0808    0.0015402714988332975
118.0651    0.0033973722841372117
119.0729    0.142301433500689
120.0807    0.01968814738257366
121.0886    0.011671129374484675
124.0757    0.005977944049212725
134.0964    1.0
135.1042    0.1444516505447639
167.0941    0.003494391992933167
240.1383    0.006495402065790415
241.1461    0.006862880222644295
286.1256    0.0035918133948718988
357.1267    0.9888543130657925


