PRECURSORMZ: 291.0894814
COMPOUNDNAME: Training-259
FORMULA: C15H15ClN2O2
SMILES: CN(C)C(=O)Nc1ccc(Oc2ccc(Cl)cc2)cc1
INCHIKEY: IVUXTESCPZUGJC-UHFFFAOYSA-N
PRECURSORTYPE: [M+H]+
IONMODE: positive
CHARGE: 1
PARENTMASS: 290.0822054
NUM PEAKS: 15
56.0133     0.003833078350525187
70.04       0.02596931619544953
72.0444     1.0
106.0651    0.0026639785727984103
118.0652    0.01629828184291854
119.073     0.005120749555139165
120.0806    0.0018232711733322435
126.9944    0.00222826253548669
147.0679    0.007932423792037777
163.0309    0.008231345122407467
163.0865    0.005540995674789438
164.0945    0.03061006061425378
218.0368    0.03617675270060394
246.0316    0.0021655472770744193
291.0896    0.8189177463318631


