PRECURSORMZ: 136.02154615999999
COMPOUNDNAME: Training-159
FORMULA: C7H5NS
SMILES: S1C=NC2=CC=CC=C12
INCHIKEY: IOJUPLGTWVMSFF-UHFFFAOYSA-N
PRECURSORTYPE: [M+H]+
IONMODE: positive
CHARGE: 1
PARENTMASS: 135.01427016
NUM PEAKS: 3
65.0388     0.0010014675502143472
109.0106    0.007591206301413266
136.0214    1.0


