PRECURSORMZ: 326.175069596
COMPOUNDNAME: Training-283
FORMULA: C20H23NO3
SMILES: COC(=O)C(C)N(C(=O)Cc1ccccc1)c1c(C)cccc1C
INCHIKEY: CJPQIRJHIZUAQP-UHFFFAOYSA-N
PRECURSORTYPE: [M+H]+
IONMODE: positive
CHARGE: 1
PARENTMASS: 325.167793596
NUM PEAKS: 17
65.0386     0.004673705564017273
91.0542     0.5514626749549225
105.0698    0.002845406041881666
106.065     0.0042595571750859715
107.0729    0.0014594541934220752
118.0651    0.0013574941133464447
120.0808    0.003529373795997211
121.0885    0.2827401355415233
122.0963    0.023182781889843226
131.0856    0.00225995580893424
133.0882    0.003947968471085061
148.1119    1.0
208.1331    0.37470442676046617
211.1353    0.0011348292528374656
266.1538    0.14037377449414026
294.1487    0.3756583811676408
326.175     0.20192975397930862


