PRECURSORMZ: 122.096425352
COMPOUNDNAME: Training-095
FORMULA: C8H11N
SMILES: CC1=C(C(=CC=C1)C)N
INCHIKEY: UFFBMTHBGFGIHF-UHFFFAOYSA-N
PRECURSORTYPE: [M+H]+
IONMODE: positive
CHARGE: 1
PARENTMASS: 121.08914935199999
NUM PEAKS: 11
77.0385     0.0020238940959843303
79.0542     0.020765125933881592
95.0491     0.002579305880165602
103.0542    0.012373998075707202
105.0699    0.2529745196697337
106.065     0.0025179126723676964
107.0729    0.15005033373902577
120.057     0.0028853902810212326
120.0807    0.0033383105903634675
122.0964    1.0
133.076     0.011303430723649532


