PRECURSORMZ: 255.0651848
COMPOUNDNAME: Training-190
FORMULA: C15H10O4
SMILES: OC1=CC=C(C=C1)C1=COC2=CC(O)=CC=C2C1=O
INCHIKEY: ZQSIJRDFPHDXIC-UHFFFAOYSA-N
PRECURSORTYPE: [M+H]+
IONMODE: positive
CHARGE: 1
PARENTMASS: 254.0579088
NUM PEAKS: 39
55.0181     0.0012034373056503396
68.9972     0.002163281407810114
81.0335     0.0010628358470731077
91.0542     0.011438354799128879
105.0335    0.001273260645202862
119.0492    0.007059424478844258
121.0284    0.0031030717472880645
128.062     0.003356653369439382
129.0699    0.006842645419701146
131.0492    0.0019694696593708844
131.0856    0.0015057211652979381
133.0284    0.005742358234705972
134.0362    0.0011692400235952705
137.0233    0.05602928190990646
141.0699    0.0012135003871608136
143.0857    0.0035599704905267776
145.0284    0.01115725991685545
149.0233    0.004746736486838704
152.0621    0.0017481446508095444
153.0698    0.011827840342229164
157.0649    0.00973802152226781
165.07      0.002183461871085404
169.0648    0.0014780116323814861
171.0804    0.009477948757211979
181.0648    0.023195470756960025
182.0725    0.0012671043538667935
184.0523    0.002149710303618062
185.0598    0.002820551483338148
197.0598    0.0021465031948459646
198.0677    0.001748017950216079
199.0754    0.09736946264106301
209.0597    0.004235860462645407
209.0709    0.002031838026504316
210.0679    0.001486988708805112
211.0752    0.003191658087226481
226.0622    0.0014441548581713556
227.0703    0.04296617073791874
237.0546    0.019170794164749868
255.0652    1.0


