PRECURSORMZ: 330.14999771999993
COMPOUNDNAME: Training-174
FORMULA: C19H20FNO3
SMILES: Fc1ccc(cc1)[C@@H]1CCNC[C@H]1COc1ccc2OCOc2c1
INCHIKEY: AHOUBRCZNHFOSL-YOEHRIQHSA-N
PRECURSORTYPE: [M+H]+
IONMODE: positive
CHARGE: 1
PARENTMASS: 329.14272171999994
NUM PEAKS: 44
56.0497     0.012455856372195522
57.0575     0.0037713940943597418
58.0653     0.002119638113163953
65.0387     0.0011665705224392306
68.0496     0.009892603066053461
70.0652     0.22414218293937435
71.073      0.003652193398706365
82.0651     0.008540490439845252
83.0729     0.002733479515606002
84.0808     0.005780059853834118
86.06       0.0044478975375586574
93.0334     0.0029980400437285126
96.0807     0.0031246166973885117
97.0886     0.011018106175215127
103.0542    0.0014371440047446042
109.0284    0.0030840230934183637
109.0448    0.023752023432534797
111.0441    0.001929818554877695
123.0441    0.018049898962107035
123.0605    0.03449789019435867
135.0439    0.0015569691290575774
135.0604    0.01898115545224764
136.0682    0.006050690409391775
137.076     0.006256838996638986
138.0714    0.00441869190483256
139.0389    0.0041149409642383455
147.0604    0.006449997171328041
148.0682    0.003743611578113654
149.0761    0.0035912624673649063
150.0714    0.006689696388129023
151.039     0.04308546944445315
161.0596    0.0017485697780689363
161.0761    0.012327913675307795
163.0917    0.025849585341546334
164.087     0.006668906864989622
175.092     0.0032901439883183145
176.0996    0.006952829071809796
178.1027    0.024194243201380153
190.1028    0.0031555223700672364
192.1183    0.18443835434943842
193.1262    0.00975073382018551
208.1135    0.003068356316810827
313.1232    0.005016473434420577
330.1501    1.0


