PRECURSORMZ: 349.1328875
COMPOUNDNAME: Training-169
FORMULA: C16H20N4O3S
SMILES: CC(C)NC(=O)NS(=O)(=O)c1cnccc1Nc1cccc(C)c1
INCHIKEY: NGBFQHCMQULJNZ-UHFFFAOYSA-N
PRECURSORTYPE: [M+H]+
IONMODE: positive
CHARGE: 1
PARENTMASS: 348.1256115
NUM PEAKS: 38
67.0417     0.0015463563312662115
81.0448     0.0011090280182664565
94.0651     0.0010857669025713958
98.006      0.0018399718973428057
122.0601    0.01136066799097986
125.0168    0.05806178009227907
126.0009    0.0034853896891226216
126.0245    0.0021803117762053546
128.0164    0.0012882597129214286
129.0698    0.0016269432978554465
137.0168    0.00574838659760601
153.0117    0.003523225321181789
156.0808    0.0031319502947062252
168.0682    0.06438797203023308
169.0761    0.0021035542037223355
176.0404    0.0010727079966760414
181.076     0.004005340769567725
182.084     0.019594763566313907
183.0918    0.200954284431131
184.0632    0.0011129337972065041
185.0711    0.004652531579037341
186.0789    0.0015264725855024756
191.0638    0.0174313236528674
198.0789    0.022681620702850312
199.0867    0.02369993447921671
201.0482    0.01823254641355221
202.056     0.0012325891890591547
204.035     0.001216228814617992
205.0431    0.0011028041046541068
214.0737    0.0029382291705906554
219.0588    0.04305128520286922
229.0431    0.008669322821955112
230.051     0.03861769431276817
232.0299    0.0010540599448064462
247.0537    0.034380617911149006
264.0803    1.0
290.0595    0.19869704490863563
349.1331    0.13860978558177667


