PRECURSORMZ: 515.2441522
COMPOUNDNAME: Training-225
FORMULA: C33H30N4O2
SMILES: CCCC1=Nc2c(C)cc(C3=Nc4ccccc4N3C)cc2N1Cc1ccc(-c2ccccc2C(O)=O)cc1
INCHIKEY: RMMXLENWKUUMAY-UHFFFAOYSA-N
PRECURSORTYPE: [M+H]+
IONMODE: positive
CHARGE: 1
PARENTMASS: 514.2368762
NUM PEAKS: 30
106.0651    0.0012866872212691017
133.0284    0.0012114047111752803
152.0623    0.004453057438252571
155.0858    0.004452688043193404
165.07      0.008837730108766142
166.0781    0.0021793232779938943
167.0857    0.0033026232082715916
183.0806    0.005793909747125944
193.0651    0.07783718137443539
211.0755    0.07995967565814834
260.1063    0.0014377292076045696
261.1135    0.018374933102960712
262.1217    0.008319638315961211
274.1216    0.0047096774036414725
275.1293    0.02639439835530706
276.1373    0.6230240611763682
287.1292    0.003319093762695418
288.137     0.00630249266162211
289.1451    0.12329733233442415
302.1527    0.0052999534562225455
303.1608    0.0643350004010575
305.1764    0.05818991062750397
317.1765    0.02366951815296625
453.1714    0.0031697140541261997
455.1868    0.006467021626903521
467.1872    0.02711933108481343
471.1834    0.0012715481127728205
485.1975    0.009446304409456643
497.2342    0.2323318546164965
515.2449    1.0


