PRECURSORMZ: 273.03393718
COMPOUNDNAME: Training-003
FORMULA: C13H10N2O3S
SMILES: OS(=O)(=O)C1=CC=C2N=C(NC2=C1)C1=CC=CC=C1
INCHIKEY: UVCJGUGAGLDPAA-UHFFFAOYSA-N
PRECURSORTYPE: [M-H]-
IONMODE: negative
CHARGE: -1
PARENTMASS: 274.04121318
NUM PEAKS: 4
193.0772    0.7885289824943181
208.0644    0.002324970890363784
209.0716    0.009201835466667764
273.0341    1.0


