PRECURSORMZ: 212.05851561999998
COMPOUNDNAME: Training-120
FORMULA: C9H10ClN3O
SMILES: c1cc(ncc1CN2CCN=C2O)Cl
INCHIKEY: ADWTYURAFSWNSU-UHFFFAOYSA-N
PRECURSORTYPE: [M+H]+
IONMODE: positive
CHARGE: 1
PARENTMASS: 211.05123962
NUM PEAKS: 34
56.0496     0.005838766669480609
57.0701     0.0012362754884598399
65.0387     0.0027848758402860847
67.0543     0.0010967364600254438
69.0084     0.0015176133269833802
70.0288     0.00366088610063341
71.0605     0.0044817386319188
85.0396     0.005328408706413946
86.0349     0.00922830262609098
90.0338     0.003025465079845808
92.0495     0.008438902159674324
93.0572     0.007092508890655124
97.0396     0.0038558189334945547
99.0553     0.20568856869611082
106.0651    0.0014549338954847144
107.0604    0.0026543261635443662
110.0599    0.0034846629515040903
114.0105    0.013328596087679414
114.0662    0.005296719144039649
126.0105    0.13066615006929808
127.0183    0.008261720487678231
128.0261    0.7629331755401803
133.076     0.006531743148637828
142.0054    0.0022908042331100304
144.0209    0.002284613654417067
156.088     0.0963840037721999
167.0372    0.0012538559924346662
168.0209    0.0011577064783403412
169.0164    0.0031739536400318285
169.0526    0.008855297861123063
176.0818    0.013527287638547797
194.048     0.0070717328364108085
195.032     0.020314177059481662
212.0585    1.0


