PRECURSORMZ: 202.08539906399997
COMPOUNDNAME: Training-193
FORMULA: C7H12ClN5
SMILES: CCNc1nc(Cl)nc(NCC)n1
INCHIKEY: ODCWYMIRDDJXKW-UHFFFAOYSA-N
PRECURSORTYPE: [M+H]+
IONMODE: positive
CHARGE: 1
PARENTMASS: 201.07812306399998
NUM PEAKS: 13
57.0701     0.012486586958062889
61.9795     0.0019428092162785935
68.0244     0.014952514040739807
79.0058     0.038078958976621086
86.0349     0.003037312453722667
96.0556     0.0016295725943663748
104.001     0.0348534565475534
110.0461    0.030174658163124646
124.087     0.0033129112036438973
128.0567    0.005020116485955322
132.0322    0.002808210731221249
146.0228    1.0
202.0854    0.32387346694026087


