PRECURSORMZ: 377.20709799599996
COMPOUNDNAME: Training-165
FORMULA: C20H28N2O5
SMILES: CCOC(=O)[C@H](CCc1ccccc1)N[C@@H](C)C(=O)N1CCC[C@H]1C(O)=O
INCHIKEY: GBXSMTUPTTWBMN-XIRDDKMYSA-N
PRECURSORTYPE: [M+H]+
IONMODE: positive
CHARGE: 1
PARENTMASS: 376.19982199599997
NUM PEAKS: 30
56.0497     0.03404254562434524
58.0653     0.0011249343730417762
70.0652     0.015576113964690882
73.0648     0.027554854459366934
82.0651     0.0011480411109041156
84.0444     0.002219802526365706
91.0542     0.11773279122038319
98.06       0.0032326242799180296
102.055     0.07745390386648635
105.0699    0.0054633976981571224
115.0541    0.0036781037014814153
116.0706    0.025219359771218978
117.0699    0.3624722673176538
119.0854    0.0010349292680507402
130.0863    0.2675390556008526
134.0964    0.13671070427101453
142.0863    0.0022983734192068635
143.0855    0.004388195857457037
144.0807    0.0046889899134087065
160.1121    0.2655429073286864
162.1276    0.006969774098098089
188.1071    0.0021521480882897314
206.1175    0.017157825273818653
206.1538    0.002901658759172653
232.1334    0.009305393386738152
234.1489    0.7002342489251695
257.1652    0.001078830981247021
280.1539    0.0021230290742546352
303.1704    0.18598152525518907
377.2072    1.0


