PRECURSORMZ: 100.075689908
COMPOUNDNAME: Training-084
FORMULA: C5H9NO
SMILES: CN1CCCC1=O
INCHIKEY: SECXISVLQFMRJM-UHFFFAOYSA-N
PRECURSORTYPE: [M+H]+
IONMODE: positive
CHARGE: 1
PARENTMASS: 99.068413908
NUM PEAKS: 7
58.0288     0.024681238827232766
69.0335     0.01971937687988291
71.0491     0.002862838871684493
72.0808     0.0015754657717002053
82.0651     0.005789189932960111
98.0599     0.004519124473660943
100.0755    1.0


