PRECURSORMZ: 278.190325736
COMPOUNDNAME: Training-179
FORMULA: C20H23N
SMILES: CN(C)CCC=C1c2ccccc2CCc2ccccc12
INCHIKEY: KRMDCWKBEZIMAB-UHFFFAOYSA-N
PRECURSORTYPE: [M+H]+
IONMODE: positive
CHARGE: 1
PARENTMASS: 277.183049736
NUM PEAKS: 33
58.0653     0.030531711703263038
65.0387     0.0020612590138105046
70.0652     0.004905085615262022
79.0543     0.004048480118511517
84.0808     0.08387062488181664
85.0886     0.0057515188085194855
91.0542     0.3109051691883993
103.0542    0.007140506788340423
105.0699    0.2696958439451593
115.0542    0.01146269459233379
117.0699    0.24621452705268376
129.0699    0.035541671328972436
141.0698    0.012970978087186117
153.0699    0.004095040179902064
154.0778    0.0018577828973340067
155.0855    0.07803236715494188
165.0699    0.002061974253899859
178.0777    0.032930947024733606
179.0855    0.03694990394837264
190.0777    0.0035305705240924043
191.0855    0.14058214873607736
192.0933    0.011343183090036452
193.1012    0.01789210641790136
203.0855    0.02246167410475717
204.0934    0.028308649704745406
205.1012    0.06890974435607856
207.117     0.008134145318880116
216.0937    0.0028859621898266095
217.1011    0.0052275184602922735
218.109     0.07616703842023291
231.1171    0.008360992259086061
233.1325    0.28470669765363976
278.1904    1.0


