PRECURSORMZ: 260.164504912
COMPOUNDNAME: Training-146
FORMULA: C16H21NO2
SMILES: CC(C)NCC(O)COc1cccc2ccccc12
INCHIKEY: AQHHHDLHHXJYJD-UHFFFAOYSA-N
PRECURSORTYPE: [M+H]+
IONMODE: positive
CHARGE: 1
PARENTMASS: 259.157228912
NUM PEAKS: 29
56.0496     0.07564694717366906
58.0653     0.08132915111129878
60.0809     0.006185399611353842
72.0808     0.10781325533205662
74.0601     0.12270554257821034
84.0808     0.0036321828363836107
86.0964     0.02346353557706763
90.0548     0.0032190289535355054
98.0964     0.08612879749983351
100.112     0.015215225613600935
115.0542    0.0028876571844716117
116.107     0.21098148649526163
128.0621    0.0014841899741403282
129.0698    0.022673514059474053
132.1018    0.004920503213859355
141.0698    0.015501545808214985
143.0491    0.0028784642000918566
145.0648    0.012300530979030399
153.0699    0.010755359261134663
154.0776    0.0016288444719880367
155.0855    0.06747085005967844
157.0648    0.0733248195009579
165.07      0.018446825939085292
168.0571    0.0045921254206499115
171.0803    0.002607029240247504
183.0805    0.12576042551183236
218.1175    0.019216272189279123
242.1536    0.003529056262143714
260.1645    1.0


