PRECURSORMZ: 96.04438978
COMPOUNDNAME: Training-082
FORMULA: C5H5NO
SMILES: OC1=CC=CN=C1
INCHIKEY: GRFNBEZIAWKNCO-UHFFFAOYSA-N
PRECURSORTYPE: [M+H]+
IONMODE: positive
CHARGE: 1
PARENTMASS: 95.03711378
NUM PEAKS: 4
67.0417     0.001983275722575201
68.0495     0.023017775480436025
78.0338     0.0015267726907607232
96.0444     1.0


