PRECURSORMZ: 434.931430428
COMPOUNDNAME: Training-053
FORMULA: C12H4Cl2F6N4OS
SMILES: NC1=C(C(=NN1C1=C(Cl)C=C(C=C1Cl)C(F)(F)F)C#N)S(=O)C(F)(F)F
INCHIKEY: ZOCSXAVNDGMNBV-UHFFFAOYSA-N
PRECURSORTYPE: [M-H]-
IONMODE: negative
CHARGE: -1
PARENTMASS: 435.938706428
NUM PEAKS: 49
81.9739     0.0014428781279797955
143.0052    0.0043119913408757055
148.9914    0.0016726541762234878
150.0033    0.0070328067417467725
160.0014    0.0011616009071463546
162.0038    0.0011147643223462103
163.0113    0.02775506017575961
170.0098    0.07252626858748035
172.9829    0.00103066257763575
182.0098    0.04234133443290467
183.0176    0.25698443419323247
201.9985    0.004595840527794243
208.9583    0.005106862871427467
212.9492    0.013077365152178956
214.9896    0.0014886941731309437
216.9788    0.0068762672989201865
217.9864    0.06004390897611009
223.9833    0.004476849728113806
227.9834    0.001316712625312476
228.9437    0.0015346854624642425
233.9813    0.011165105790789371
235.9558    0.0020298121279282533
236.9977    0.0010703141509677088
242.9849    0.008865474318995955
243.9896    0.08254449398242404
244.9214    0.0016288792103703322
245.9819    0.0011560704069272995
249.9586    0.5932411411488803
253.9867    0.020556075561167952
255.9897    0.0017601525655232843
262.9524    0.0017689044661495245
267.9896    0.0474870087364379
271.9845    0.005017859443857434
277.9534    0.26706009844599643
278.9966    0.001635028219467567
280.9571    0.02498849058062521
281.9926    0.09247835992062468
283.0008    0.0016723088420998375
287.9617    0.02953836043604876
303.9567    0.005580181944694998
317.9693    0.18275575599824756
329.9597    1.0
332.9635    0.023069618328479757
348.9329    0.004155668376156482
350.9875    0.008093884493467
364.9283    0.005546498982037471
365.9361    0.05067592196479654
398.9549    0.12603660541710693
434.9316    0.1445018426410329


