PRECURSORMZ: 275.04848918
COMPOUNDNAME: Training-114
FORMULA: C13H10N2O3S
SMILES: OS(=O)(=O)C1=CC=C2N=C(NC2=C1)C1=CC=CC=C1
INCHIKEY: UVCJGUGAGLDPAA-UHFFFAOYSA-N
PRECURSORTYPE: [M+H]+
IONMODE: positive
CHARGE: 1
PARENTMASS: 274.04121318
NUM PEAKS: 11
80.0495     0.0015396195263205625
92.0494     0.0017080983216662443
108.0444    0.006864252915773103
182.0838    0.0032760251172884616
193.0761    0.007663026847804279
194.0839    0.13774374003410012
195.0917    0.036260218455459466
210.0787    0.004326653068632994
211.0866    0.022544509410181993
226.0737    0.033937708573585315
275.0484    1.0


