PRECURSORMZ: 296.069952896
COMPOUNDNAME: Training-153
FORMULA: C12H13N3O4S
SMILES: CC(=O)NC1=CC=C(C=C1)S(=O)(=O)NC1=NOC(C)=C1
INCHIKEY: GXPIUNZCALHVBA-UHFFFAOYSA-N
PRECURSORTYPE: [M+H]+
IONMODE: positive
CHARGE: 1
PARENTMASS: 295.062676896
NUM PEAKS: 72
65.0386     0.14560225579731795
68.0495     0.0017090334408225633
72.0444     0.0019433050831485993
79.0542     0.0015167883548145736
80.0494     0.005014459308125963
92.0494     0.036529384317552226
93.0334     0.09849295902128662
93.0572     0.06492667050159494
94.0651     0.03444886871016645
97.0395     0.0018576509159712558
98.0474     0.0021674572204828865
99.0552     0.05256472881947391
106.065     0.005156288432061329
107.0603    0.011328407707293498
108.0443    0.21476545616339676
110.06      0.009761745078025224
111.044     0.0019181893840750682
118.0652    0.0028076029413547678
119.06      0.0011301449370003794
121.076     0.0013475882506665008
124.0391    0.001510684240593572
131.0603    0.004675703476656174
132.0681    0.006679213912530744
133.0759    0.0016384775030679627
134.06      0.39194934557533345
135.0677    0.014746870726144707
136.0756    0.14163918814920737
140.0163    0.002794925050240401
143.0604    0.0013946445490860214
145.0758    0.0016823737069571415
146.0712    0.06844706232450672
147.0551    0.0034457574725581955
147.079     0.042272803608257754
148.063     0.002156516931204292
148.0868    0.010097516375771913
149.0709    0.004074143620384356
150.0549    0.02902963820548885
150.0787    0.0018650079641584659
151.0324    0.0034137994035614173
152.0706    0.01988012918154332
156.0112    0.035579288242275596
156.9953    0.0028631701876261862
160.0868    0.09143534704680313
161.0014    0.011508897721814928
161.071     0.0031510749063045477
162.0661    0.05413908461334668
172.0296    0.0012722546581233876
172.0868    0.004063581462075204
173.0582    0.001830518518394031
174.022     0.009348881578623573
176.0276    0.01764485747283429
177.0113    0.002476052605580469
188.0817    0.11639290634704236
189.0896    0.022282470256398006
190.0974    0.040392682409479345
191.0816    0.0014480585495592253
193.0429    0.001791173390815643
194.0382    0.06608768262975565
195.022     0.0035018964168429378
198.0218    0.2490305292140986
201.0658    0.008560636061906402
202.0971    0.006701571656358897
214.0973    0.006395830259768773
216.0323    0.004094039011351972
216.0894    0.0028957434697081683
218.0383    0.006994732695616453
230.0922    0.012480173632939505
232.108     0.008711250728802428
236.0487    0.03476218322978347
254.0594    0.005400502518052152
278.06      0.003388023475811082
296.0699    1.0


