PRECURSORMZ: 345.0874292959999
COMPOUNDNAME: Training-048
FORMULA: C12H18N4O6S
SMILES: CCCN(CCC)C1=C(C=C(C=C1[N+]([O-])=O)S(N)(=O)=O)[N+]([O-])=O
INCHIKEY: UNAHYJYOSSSJHH-UHFFFAOYSA-N
PRECURSORTYPE: [M-H]-
IONMODE: negative
CHARGE: -1
PARENTMASS: 346.0947052959999
NUM PEAKS: 103
92.0127     0.0025424218292439222
95.0237     0.0014608007691736384
96.0078     0.0029159333729180345
106.0161    0.00635993287743488
107.024     0.007803970626568208
108.0318    0.0038543851238100934
109.0395    0.0020507957686574014
120.0194    0.001474192911327703
122.024     0.0022362658426365867
122.0478    0.0016518933238866085
123.0191    0.0013917907734927997
124.0274    0.001215229215127795
129.033     0.005660552401063592
130.0408    0.0018693459478784616
131.0487    0.004798478934591133
132.0328    0.0037178139899329207
132.0566    0.0017942566245092648
133.028     0.0035268193309959304
133.0405    0.0030876915118749535
134.0358    0.009130451864712215
134.0609    0.0016132669138774311
135.02      0.004214746001577558
135.0437    0.004082567124849355
136.0516    0.006266256409399613
137.0355    0.002449678634272998
144.0566    0.0020831862177366524
144.0693    0.0025938595331363493
145.0281    0.0034106757823732523
146.036     0.006407467803058238
146.0486    0.001703915139242383
146.0722    0.001894377897796549
147.02      0.0015399429776684073
147.0438    0.029185181477231596
147.0563    0.004893418258136542
148.028     0.0042087090953921245
148.0517    0.0014453854476493202
149.0356    0.004934567115973471
150.0308    0.00761750527886656
151.0386    0.0014942615454036042
152.0226    0.004251199125359979
153.0179    0.0015032581672161664
156.0566    0.0024531539343202883
157.0647    0.004091945540188239
158.0359    0.002069425334826396
158.0722    0.0023425676025807416
159.0564    0.001970919341842782
160.0515    0.0065866170731016475
160.0642    0.0023804924261953955
161.072     0.010003257971424614
162.0309    0.003834417648702705
163.0147    0.0012715160231237656
163.0261    0.00461954503525488
164.01      0.0014453985004194508
171.0679    0.002606644721479338
172.0514    0.0022868551164705207
173.0596    0.00342144105453852
174.0673    0.022186765822470058
175.0514    0.004089269722311452
175.0751    0.0029194347785055858
176.0339    0.002162269688765833
176.0465    0.0015650108227043538
176.0828    0.003752276566270415
177.0415    0.001821226910791756
180.0288    0.009000570275527009
182.0207    0.012485695795533054
186.0104    0.0024058996432547394
190.0621    0.002334119197113667
191.021     0.0068592307036657
191.07      0.0048557120684215764
192.0288    0.006847150364909768
192.9951    0.0015173649485348854
194.0029    0.0015255816673321403
197.0031    0.0015138341742145396
199.0183    0.0013841777453140881
203.0575    0.010800103482361597
204.0653    0.00272990202982323
211.0052    0.003073630415251692
212.0135    0.004281236812623177
221.0679    0.005253759556748811
222.0344    0.005141789631375413
223.0421    0.0032050032834243266
224.05      0.002091347462260852
226.9879    0.00572086272545234
227.0004    0.0027181284311653684
228.0083    0.005911214535460395
234.1248    0.014622982482268792
238.029     0.0021874778510806844
238.0706    0.0015660060964268173
240.0449    0.005430931332117425
241.0038    0.015126483300481686
244.0029    0.004659682303406682
256.0398    0.004217284765367973
258.0555    0.0031267029786029854
267.0193    0.002127206685002328
268.0271    0.0032706391380263873
269.0348    0.0016084047570037575
272.0349    0.0014600469716985922
272.9936    0.003144249164851135
281.1255    0.09684722084986848
283.0507    0.0024748411118923922
299.0456    0.009114511169190138
309.0664    0.0019476821478176618
345.0873    1.0


