PRECURSORMZ: 223.096484928
COMPOUNDNAME: Training-222
FORMULA: C12H14O4
SMILES: CC(C)COC(=O)C1=CC=CC=C1C(O)=O
INCHIKEY: RZJSUWQGFCHNFS-UHFFFAOYSA-N
PRECURSORTYPE: [M+H]+
IONMODE: positive
CHARGE: 1
PARENTMASS: 222.089208928
NUM PEAKS: 9
57.0701     0.05108296620791707
65.0386     0.003995998018614698
93.0335     0.002372995948550161
121.0285    0.025937379224175813
121.0396    0.0030918859161491504
149.0234    1.0
163.039     0.014219773285578904
167.034     0.016253052484871588
181.0496    0.013098879332708608


