PRECURSORMZ: 256.029045332
COMPOUNDNAME: Training-249
FORMULA: C12H11Cl2NO
SMILES: CC(C)(NC(=O)C1=CC(Cl)=CC(Cl)=C1)C#C
INCHIKEY: PHNUZKMIPFFYSO-UHFFFAOYSA-N
PRECURSORTYPE: [M+H]+
IONMODE: positive
CHARGE: 1
PARENTMASS: 255.02176933200002
NUM PEAKS: 20
57.0701     0.001023508734707365
65.0387     0.04096998546527136
67.0543     0.11888106938473408
84.9839     0.00385132775721638
85.0648     0.007822259138238133
108.9841    0.0019922226398517992
120.9606    0.00101833980659178
126.9945    0.004896857306947679
128.0023    0.0031180239475506024
139.0056    0.002182042141567891
144.9602    0.004289084336482626
146.9762    0.031035820043110344
158.9762    0.0016207799979209973
162.9712    0.008657775500629645
171.9712    0.004385411589190283
172.9556    0.5645950639232367
172.9661    0.02853205261279123
189.982     1.0
201.9819    0.0026192595366628466
256.029     0.380700186470082


