PRECURSORMZ: 194.917671756
COMPOUNDNAME: Training-043
FORMULA: C6H3Cl3O
SMILES: OC1=C(Cl)C=C(Cl)C(Cl)=C1
INCHIKEY: LHJGJYXLEPZJPM-UHFFFAOYSA-N
PRECURSORTYPE: [M-H]-
IONMODE: negative
CHARGE: -1
PARENTMASS: 195.924947756
NUM PEAKS: 3
122.964     0.0015727035131132346
158.941     0.3299334726388182
194.9177    1.0


