PRECURSORMZ: 242.11755472
COMPOUNDNAME: Training-291
FORMULA: C15H15NO2
SMILES: Cc1cccc(Nc2ccccc2C(O)=O)c1C
INCHIKEY: HYYBABOKPJLUIN-UHFFFAOYSA-N
PRECURSORTYPE: [M+H]+
IONMODE: positive
CHARGE: 1
PARENTMASS: 241.11027872
NUM PEAKS: 8
180.0806    0.004644682212235399
181.0886    0.0020451657810234953
208.0756    0.005449429583207298
209.0836    0.13118508841250442
222.0912    0.004270156992855684
223.0995    0.002799707124544135
224.107     1.0
242.1176    0.0924630279079412


