PRECURSORMZ: 108.080775288
COMPOUNDNAME: Training-076
FORMULA: C7H9N
SMILES: CNC1=CC=CC=C1
INCHIKEY: AFBPFSWMIHJQDM-UHFFFAOYSA-N
PRECURSORTYPE: [M+H]+
IONMODE: positive
CHARGE: 1
PARENTMASS: 107.073499288
NUM PEAKS: 6
66.0465     0.0018038881391593518
80.0495     0.001348619507989761
91.0542     0.006446800876460732
92.0494     0.001713060345586915
93.0573     1.0
108.0807    0.9759152622963654


