PRECURSORMZ: 316.034666868
COMPOUNDNAME: Training-280
FORMULA: C14H9ClF3NO2
SMILES: FC(F)(F)[C@]1(OC(=O)NC2=C1C=C(Cl)C=C2)C#CC1CC1
INCHIKEY: XPOQHMRABVBWPR-ZDUSSCGKSA-N
PRECURSORTYPE: [M+H]+
IONMODE: positive
CHARGE: 1
PARENTMASS: 315.027390868
NUM PEAKS: 87
50.0153     0.0021643735758364907
51.0232     0.023657970467437305
53.0388     0.6107343402616652
81.0336     0.008141410346093376
138.0277    0.003037667176883705
141.0699    0.0021522790079164444
142.0776    0.003433342221729705
151.0184    0.023746216659856077
154.065     0.00809400171765374
164.0261    0.021421349812651074
166.0651    0.02067242161473304
167.073     0.13637777646952898
168.0808    0.7313806853992506
170.0527    0.00782540188249309
174.0104    0.008019927900099042
175.0184    0.017006702658900284
177.057     0.0033383951019164307
182.0168    0.006943156396528677
182.0338    0.003071899046286613
183.9957    0.0027992301725272366
184.9963    0.0021877229313700367
185.0448    0.0374482020043911
185.0637    0.009904429538103516
188.0262    0.1269618653165539
189.0384    0.053924856111869125
192.0013    0.01448365631687941
195.048     0.012524041957848224
196.0561    0.007513410512317932
197.0637    0.039949950825235656
198.0525    0.008165261838305064
198.0711    0.007947611560917837
200.0073    0.02104486850945056
200.0263    0.003935426954696882
201.034     0.16490464597632684
202.0417    0.1583811806099056
203.0497    0.23579353178698326
204.0015    0.0032488416226287026
206.0165    0.004344278758579611
206.0412    0.008523103481711836
208.0375    0.0026217681444491384
209.0446    0.02478726719904698
210.0115    0.008564599017889918
212.0073    0.07027120575136962
212.0168    0.003806066157373098
214.0464    0.002530344638911783
215.0542    0.04096827535097622
216.0368    0.0037626140196560538
216.062     0.0698036472437891
217.0699    0.09448162179758005
218.0367    0.003125610355789809
219.0247    0.016040236731471157
220.0136    0.09457856014904802
220.0322    0.007721381672357548
222.0526    0.1702511289417729
223.0426    0.004502339264317821
224.0073    0.42585692221383403
226.0233    0.0020806119834052487
228.0213    0.004737945256713048
229.029     0.025835624692657724
230.0169    0.04438433714495474
230.0356    0.0022847565156562753
231.025     0.002539209948539648
232.0138    0.479944834225636
232.0321    0.26197415900763943
235.0603    0.04911036098432641
236.0683    0.1428299557427121
237.0153    0.05935176752110706
237.0761    0.3239306653137835
239.0308    0.010973054306947495
243.049     0.003757705200750781
244.0137    1.0
247.0397    0.009235202551546928
248.0269    0.008176568571092165
250.0231    0.1899746680703407
251.0305    0.0024710751958333045
252.0387    0.16372633897342484
256.0132    0.008414841082398898
257.0211    0.027090334388397527
258.0114    0.01296327303075847
263.0552    0.014717314365264609
270.0291    0.06984593061510011
272.0449    0.3689377818025668
276.0226    0.008112372994050546
278.018     0.09355718817312286
296.0288    0.010827122999245063
298.0243    0.07329264006150309
316.0349    0.333250884799457


