PRECURSORMZ: 198.13493609999998
COMPOUNDNAME: Training-099
FORMULA: C8H15N5O
SMILES: CCNC1=NC(=O)N=C(NC(C)C)N1
INCHIKEY: NFMIMWNQWAWNDW-UHFFFAOYSA-N
PRECURSORTYPE: [M+H]+
IONMODE: positive
CHARGE: 1
PARENTMASS: 197.12766009999999
NUM PEAKS: 12
69.0084     0.016536926366712956
71.0604     0.010929509397525884
85.0508     0.00161856307570387
86.0349     0.1348213759535963
96.0555     0.002183115441362422
97.0396     0.028961538128012634
113.0821    0.004897600831631001
114.0662    0.10761903683212866
128.0567    0.008789216971062986
128.0818    0.018537184570158512
156.088     0.40528079138028766
198.1349    1.0


