PRECURSORMZ: 404.12409664400013
COMPOUNDNAME: Training-251
FORMULA: C22H17N3O5
SMILES: CO\C=C(\C(=O)OC)c1ccccc1Oc1cc(Oc2ccccc2C#N)ncn1
INCHIKEY: WFDXOXNFNRHQEC-GHRIWEEISA-N
PRECURSORTYPE: [M+H]+
IONMODE: positive
CHARGE: 1
PARENTMASS: 403.11682064400014
NUM PEAKS: 115
82.0288     0.002907929944271459
83.0128     0.002119637921140607
89.0385     0.003855892545297606
91.0543     0.0027254698187509116
103.0542    0.0024056782634688865
106.065     0.0023698046314500542
107.0491    0.004341728185431862
114.0338    0.0027710847459683535
116.0494    0.0020419525502094185
120.0443    0.007683566999978401
121.0648    0.002237497593425104
127.0416    0.0010638173497650623
129.0447    0.012600863237081893
130.04      0.006844798151697149
130.0525    0.001997475079616964
131.0491    0.0021208587079212713
132.0444    0.002599030890288717
133.0284    0.0011997929978936803
133.0522    0.011603091702103094
134.06      0.038920028349585606
141.0448    0.004402019219667089
143.0368    0.0024916974832693045
143.0603    0.019048102799013263
144.0447    0.0011120509271246458
145.0284    0.014054701547380994
145.0521    0.010989276775578958
146.0601    0.0023106123053174238
147.0441    0.0017589370925322047
155.0605    0.0036462238739962717
156.0443    0.03456336323374869
157.0284    0.0017560522025426763
159.0553    0.003033388076801338
160.0392    0.003307652201529382
161.071     0.0010260950382425418
162.0309    0.0011390361480882194
162.0548    0.004126018494494743
169.0395    0.011561592451274525
170.0474    0.002854878217310647
170.06      0.002385639444282525
171.0313    0.0056682013525884214
171.0552    0.013598275202438947
172.0392    0.050114751457477756
173.047     0.006076513282293502
175.0392    0.001011830582193799
177.0544    0.008070361000233858
182.0476    0.004365657689586771
182.0714    0.008417199857445436
183.0553    0.07377259513837206
184.0395    0.002418243200992602
185.0234    0.0025992212996944386
186.0549    0.002281148012222467
186.0664    0.001962790985570417
187.0501    0.0036482942117140598
197.071     0.001101142176445005
199.0501    0.01292309553262369
200.0341    0.019660019047940305
201.042     0.030784973982992115
201.0658    0.015598611422951072
202.0498    0.0018539709685737318
207.0553    0.0020556782768017113
210.0423    0.024619979908099505
210.0661    0.010138339224664233
211.0501    0.004484749814873726
212.0341    0.0019798928334199524
216.0656    0.030007376552040815
227.0453    0.0019206188437347587
231.0919    0.002302127628866419
232.0757    0.001052299872298203
233.0711    0.0011330734587987712
242.0319    0.01080770369956559
244.0872    0.0023939582937237327
245.0707    0.002486178527058835
245.0951    0.002015918126322116
246.079     0.004400338450427091
247.0868    0.0010280978785342319
256.0865    0.0010258342148552735
258.0795    0.001620804859974673
259.0866    0.0025786891659864706
260.0706    0.0010105277152097933
261.0665    0.0015118977629653056
261.0787    0.0024176028087462267
261.1025    0.001168217951955432
262.0864    0.0023675938824199503
271.0868    0.002232888602514624
272.0706    0.0012999208463517259
272.082     0.02102526698648558
273.0659    0.012910950162433807
273.0894    0.020291353306393915
274.0735    0.003909622996376405
275.0818    0.004405864906351571
284.0818    0.002766811575585251
285.0665    0.00111491623452759
286.0735    0.0023936558052586264
287.0813    0.014509621699759183
288.066     0.004936855074593155
288.0892    0.0011096597683075019
288.1134    0.003076445601541061
289.0968    0.005456425261650023
299.0809    0.0019553766849690797
300.0766    0.02210291755874376
301.0841    0.045659854670875216
303.0762    0.01325712779486009
312.0767    0.005439321747197374
313.0608    0.002489851303670287
314.0927    0.001015087541328424
315.0768    0.00269659716976126
315.1002    0.008268942177671625
316.1082    0.04509119718901386
317.0923    0.006415197033819777
328.0717    0.06312823854317022
329.0795    0.2568198899348638
340.0713    0.0018365699654653168
344.103     0.29017003484933773
372.098     1.0
404.1241    0.04808434555028968


