PRECURSORMZ: 94.065125224
COMPOUNDNAME: Training-074
FORMULA: C6H7N
SMILES: NC1=CC=CC=C1
INCHIKEY: PAYRUJLWNCNPSJ-UHFFFAOYSA-N
PRECURSORTYPE: [M+H]+
IONMODE: positive
CHARGE: 1
PARENTMASS: 93.057849224
NUM PEAKS: 9
51.0231     0.0037570996076477427
53.0388     0.03445831039612584
55.018      0.001691976372720052
67.0543     0.002032136129180661
77.0386     0.02107955628108683
81.0335     0.005046375984660921
93.0573     0.005780411564878336
94.0651     1.0
105.0447    0.024559325399720715


