PRECURSORMZ: 358.0840616719999
COMPOUNDNAME: Training-278
FORMULA: C19H16ClNO4
SMILES: COc1ccc2n(C(=O)c3ccc(Cl)cc3)c(C)c(CC(O)=O)c2c1
INCHIKEY: CGIGDMFJXJATDK-UHFFFAOYSA-N
PRECURSORTYPE: [M+H]+
IONMODE: positive
CHARGE: 1
PARENTMASS: 357.0767856719999
NUM PEAKS: 18
51.0231     0.003385245077832608
75.0228     0.0027196512266079277
79.0178     0.001126285971189105
86.9996     0.007686018039950054
93.0335     0.0038472694575932102
110.9995    0.005465362712007408
111.0442    0.0015747860806334614
128.0021    0.0014576397608623349
129.0101    0.023253802021514794
131.0727    0.0017872151670461716
138.9944    1.0
139.0056    0.05893397006155564
159.0679    0.0028283866742451237
174.0914    0.08036446891410105
202.0865    0.001567018639344736
220.097     0.00265264449553555
312.0786    0.004424844239099112
358.0841    0.16118218553186117


