PRECURSORMZ: 255.101570308
COMPOUNDNAME: Training-235
FORMULA: C16H14O3
SMILES: CC(C(O)=O)c1cccc(c1)C(=O)c1ccccc1
INCHIKEY: DKYWVDODHFEZIM-UHFFFAOYSA-N
PRECURSORTYPE: [M+H]+
IONMODE: positive
CHARGE: 1
PARENTMASS: 254.094294308
NUM PEAKS: 24
51.023      0.002903648536171979
53.0388     0.003853080003072244
77.0385     0.03318724499198462
79.0542     0.002047960260567501
81.0335     0.0022383086781266747
91.054      0.002467541584458386
93.0698     0.00719747072803004
94.0412     0.003798943457049378
95.0491     0.05302791683488994
103.0541    0.03566478760425645
105.0334    0.9528043296249198
107.049     0.0013361126841806973
121.0647    0.012594448553458952
131.049     0.04405299083633784
149.0593    0.0023192321920125682
165.0696    0.003555531931521202
166.0774    0.005201725461402022
177.0545    0.1269094461653042
179.0853    0.0010337460373761333
181.1009    0.005097807700808211
191.0853    0.004868499219959017
194.0725    0.09370659363593146
209.0959    1.0
255.1013    0.3376970619538622


