PRECURSORMZ: 220.11207541599998
COMPOUNDNAME: Training-289
FORMULA: C16H13N
SMILES: C1=CC=C(C=C1)NC2=CC=CC3=CC=CC=C32
INCHIKEY: XQVWYOYUZDUNRW-UHFFFAOYSA-N
PRECURSORTYPE: [M+H]+
IONMODE: positive
CHARGE: 1
PARENTMASS: 219.104799416
NUM PEAKS: 21
65.0387     0.005228347150185209
92.0494     0.05941963867842179
93.0572     0.014102304136390405
104.0494    0.0010873116864522244
115.0542    0.024452899204076586
124.0757    0.0018227253718380869
127.0544    0.001022856355966034
128.062     0.024861134547059138
142.0651    0.02842371463743658
143.0729    0.2723853680195195
155.0603    0.001133314718870794
178.0776    0.0019639780876870303
193.1012    0.0024617837368634925
202.0779    0.004989143033751346
203.0855    0.014037121260158122
204.0812    0.003699470274721274
204.0933    0.0012398305540581127
205.0886    0.01013822873246526
218.0962    0.0035283615216000794
219.1047    0.007237585254185766
220.112     1.0


