PRECURSORMZ: 226.08962572
COMPOUNDNAME: Training-243
FORMULA: C11H15NO2S
SMILES: CNC(=O)Oc1cc(C)c(SC)c(C)c1
INCHIKEY: YFBPRJGDJKVWAH-UHFFFAOYSA-N
PRECURSORTYPE: [M+H]+
IONMODE: positive
CHARGE: 1
PARENTMASS: 225.08234972
NUM PEAKS: 22
53.0388     0.004081455647797507
67.0544     0.001008439092088698
77.0385     0.00992447787957743
79.0541     0.0018217359461439933
91.0542     0.05101350112080327
93.0699     0.10407203515534666
95.0492     0.014576357324834399
95.0855     0.0023220397891711743
103.0541    0.0018793991613311372
105.0448    0.004399217131118213
107.0491    0.017051986561811873
109.065     0.0012241666709527522
121.0648    1.0
122.0726    0.25100119722498443
123.0805    0.012614981926143532
139.0753    0.0028782442958105474
141.0734    0.004098050076940896
153.037     0.007870577621024579
153.091     0.016591510561771886
154.0446    0.01234683633030988
169.0681    0.9278869187667758
226.0896    0.005622930123964268


