PRECURSORMZ: 174.972294172
COMPOUNDNAME: Training-036
FORMULA: C7H6Cl2O
SMILES: CC1=CC(Cl)=CC(Cl)=C1O
INCHIKEY: WJQZZLQMLJPKQH-UHFFFAOYSA-N
PRECURSORTYPE: [M-H]-
IONMODE: negative
CHARGE: -1
PARENTMASS: 175.979570172
NUM PEAKS: 3
118.9656    0.2386733584686616
132.9817    0.06331139544272342
174.9723    1.0


