PRECURSORMZ: 204.13829016399998
COMPOUNDNAME: Training-241
FORMULA: C13H17NO
SMILES: CCN(C(=O)\C=C\C)c1ccccc1C
INCHIKEY: DNTGGZPQPQTDQF-XBXARRHUSA-N
PRECURSORTYPE: [M+H]+
IONMODE: positive
CHARGE: 1
PARENTMASS: 203.131014164
NUM PEAKS: 28
68.0495     0.03637228185244096
69.0336     0.3086528394975049
71.0856     0.0014604756407464216
91.0542     0.008507212309054414
96.0808     0.043134468898685004
97.0648     0.00471465967913774
105.0698    0.0023715534684016683
106.0651    0.013689187211435175
107.0729    0.0051087904256353536
108.0808    0.021164815637808664
109.0648    0.0024264428183488835
116.0495    0.0014607993397204927
118.0651    0.0012624189619437978
121.0886    0.007187822688542491
130.0652    0.0010891665740918877
134.06      0.09034519200856014
134.0964    0.01677931162414347
136.112     0.13151819308042598
146.0963    0.001032973586972061
148.112     0.0011400712149290746
158.0964    0.013932117517580932
161.0832    0.0013842508475500094
162.0913    0.0280406473673465
162.1278    0.0019082985562029761
176.1069    0.005776551637499645
176.1433    0.0018346850069044234
186.1276    0.0029756939384267245
204.1383    1.0


