PRECURSORMZ: 235.14410381599998
COMPOUNDNAME: Training-218
FORMULA: C13H18N2O2
SMILES: O=C1NC2=C(CCC2)C(=O)N1C1CCCCC1
INCHIKEY: ZTMKADLOSYKWCA-UHFFFAOYSA-N
PRECURSORTYPE: [M+H]+
IONMODE: positive
CHARGE: 1
PARENTMASS: 234.136827816
NUM PEAKS: 8
55.0544     0.00373686816272849
82.0651     0.00929570713863114
83.0855     0.010551654237080998
110.0601    0.008716719877171823
135.0553    0.011593684075796203
136.0393    0.022527464016163887
153.0658    1.0
235.1441    0.11054577923765208


