PRECURSORMZ: 315.2318562
COMPOUNDNAME: Training-282
FORMULA: C21H30O2
SMILES: CC(=O)C1CCC2C3CCC4=CC(=O)CCC4(C)C3CCC12C
INCHIKEY: RJKFOVLPORLFTN-UHFFFAOYSA-N
PRECURSORTYPE: [M+H]+
IONMODE: positive
CHARGE: 1
PARENTMASS: 314.2245802
NUM PEAKS: 91
55.0181     0.002517117757727132
67.0543     0.009100842009689959
69.0699     0.008580129754437657
71.0492     0.005990295045698866
79.0542     0.035358322090640666
81.0699     0.03893419834353138
83.0491     0.03168804907308645
85.0648     0.019608525813382988
91.0541     0.01064743473851621
93.0699     0.01762714870580392
95.0491     0.0026824103690555458
95.0855     0.026753211998106343
97.0648     0.7510184060008146
105.0699    0.016231383089649803
107.0492    0.0020996844997734293
107.0855    0.01692229045013919
109.0648    0.6162934906928118
111.0804    0.002278877117133764
117.0698    0.0039878685267140165
119.0855    0.02103525487692471
121.0648    0.005297081056892318
121.1011    0.018126705097870833
123.0804    0.05518137783872105
129.0699    0.0023568538246120005
131.0855    0.01519228649781829
133.1012    0.01823627098148998
135.0804    0.0010545824697411076
135.1167    0.008884821230801084
137.0961    0.008275011951678827
143.0856    0.00520655134785193
145.1011    0.020238517830641928
147.1167    0.017090903318437423
149.096     0.006332140789530313
149.1323    0.005043046087866982
151.1116    0.0035868298813738755
155.0855    0.0020652678605107395
157.1011    0.009523760390316821
159.1167    0.021447347890480913
161.0961    0.002049137559876789
161.1324    0.011189133572660475
163.1116    0.011039075509186383
163.1479    0.003994246805781938
169.1012    0.0034535688701679613
171.1168    0.012446709719851318
173.1325    0.01635533709965615
175.1123    0.0016685085767108349
175.1481    0.006121104550311957
177.1274    0.014705564555433273
179.1427    0.0020289885747433985
183.1167    0.006604251790010042
185.1326    0.0070483379771926905
187.1118    0.002312300898822745
187.1481    0.007360652958806963
189.1273    0.006708288931690236
189.1635    0.003978312791844045
191.143     0.004874389600302959
195.1167    0.0011240123975092653
197.1326    0.006342906959025972
199.1482    0.005678275532682628
201.1274    0.002560211515220299
201.1637    0.011774363914786732
203.143     0.001994707986047817
205.1585    0.0010748430994238435
209.1324    0.003668708436032471
211.1478    0.0029203716386370653
213.1638    0.009082665238502667
215.1429    0.005264955986914553
215.1795    0.01150310920203663
219.1744    0.0027058183364758594
223.148     0.007990365085777077
225.1633    0.0020521633868025215
227.1432    0.0011960574041169608
227.1794    0.007150262700143886
229.1585    0.0047796194754953615
231.1744    0.002104548567186049
233.1899    0.004186653464291939
237.1636    0.0032646185191948867
239.1793    0.014010876858575372
241.1583    0.007157738730734202
245.1904    0.003916544795822786
251.1795    0.0021960015506856698
253.1949    0.007288597047382819
255.1741    0.0026438042031690684
255.2107    0.0177083366220875
257.1893    0.0037000255110391637
269.2266    0.0012251628784926776
271.2052    0.0027522837593592408
273.2211    0.01006031890169846
279.2108    0.024032044872841947
297.2213    0.06386339804382964
315.2319    1.0


