PRECURSORMZ: 384.0824094
COMPOUNDNAME: Training-176
FORMULA: C16H15F2N3O4S
SMILES: COC1=CC=NC(CS(=O)C2=NC3=CC=C(OC(F)F)C=C3N2)=C1OC
INCHIKEY: IQPSEEYGBUAQFF-UHFFFAOYSA-N
PRECURSORTYPE: [M+H]+
IONMODE: positive
CHARGE: 1
PARENTMASS: 383.0751334
NUM PEAKS: 23
92.0495     0.0076957542623861995
93.0574     0.007479777073014525
107.0731    0.06489670735704614
108.0447    0.00551861968173286
110.0602    0.017219913951420595
122.0603    0.03603097475021514
136.0395    0.024910887868321192
138.055     1.0
139.0091    0.0055995786686112246
152.0708    0.038424051110273603
153.0785    0.22375233277908868
153.996     0.007791066089043554
154.05      0.026789174134530254
167.0037    0.021040354260190783
168.0658    0.030658149704132026
170.0812    0.023457001854656018
181.0193    0.004870546473751595
182.0271    0.009703865269326435
185.0527    0.00848881948010851
200.0378    0.8672187631275073
215.0082    0.005484649720479626
224.1099    0.00468596612139646
384.0828    0.08418665254359822


