PRECURSORMZ: 222.04286555599998
COMPOUNDNAME: Training-135
FORMULA: C10H8ClN3O
SMILES: NC1=C(Cl)C(=O)N(N=C1)c1ccccc1
INCHIKEY: WYKYKTKDBLFHCY-UHFFFAOYSA-N
PRECURSORTYPE: [M+H]+
IONMODE: positive
CHARGE: 1
PARENTMASS: 221.035589556
NUM PEAKS: 32
53.0388     0.0018677078285188368
55.0293     0.0022976062715107342
63.9949     0.0016842955206410489
65.0387     0.009014214468693472
75.9949     0.0010435509448703411
77.0385     0.007490696184777177
83.024      0.0031350582187083045
87.9948     0.0020074566984859005
92.0495     0.05652187301386892
93.0573     0.002092423356403109
94.0651     0.019184720929448826
95.0491     0.011245105722098522
100.9901    0.002705254706552174
104.0495    0.0907512031296798
105.0448    0.0033047441210520044
119.0007    0.0010079702743073964
119.0602    0.002066377301657445
120.0444    0.001105375244980888
128.985     0.016991374821589363
130.065     0.0014574084498886223
131.0603    0.001103727008344895
132.0444    0.0016338243551704318
146.0115    0.011108044581419093
149.0151    0.0018823319237686402
150.0104    0.0010037683981892892
159.0554    0.0026595882280067797
177.0214    0.0012912753340734774
186.0662    0.0056713330710077905
193.0291    0.008274838534514715
195.0317    0.0014880236444232643
205.0165    0.003048510962375587
222.0428    1.0


