PRECURSORMZ: 289.121450224
COMPOUNDNAME: Training-258
FORMULA: C15H17ClN4
SMILES: CCCCC(Cn1cncn1)(C#N)c1ccc(Cl)cc1
INCHIKEY: HZJKXKUJVSEEFU-UHFFFAOYSA-N
PRECURSORTYPE: [M+H]+
IONMODE: positive
CHARGE: 1
PARENTMASS: 288.114174224
NUM PEAKS: 30
55.0544     0.00312625330398345
57.07       0.0018846606007350843
70.04       1.0
81.07       0.0035158086990965025
82.0651     0.002587367720807709
83.0479     0.004308724775630001
95.073      0.002386242567242669
115.0541    0.0024807731665681568
116.0622    0.0020315082894538025
125.0153    0.2381044748139007
130.0651    0.0030145931836574507
139.031     0.001754781249652147
149.0152    0.0029307130851245443
150.0105    0.003138955104178457
151.0309    0.0540716020039418
153.0699    0.002388716800773063
164.0261    0.01674280353472639
165.034     0.005116745248837909
166.0419    0.007554917789871337
167.0857    0.0010576191128533732
168.0933    0.0054755821254316266
175.0309    0.0035961964913935798
178.0418    0.013786696492661005
185.1197    0.0016084074675784485
191.0499    0.0016986880610903139
192.0574    0.004002266982031333
193.0777    0.0077442848236246205
203.0623    0.007688772997284294
220.0887    0.022815557627764407
289.1215    0.6926594726168475


