PRECURSORMZ: 342.07705814400003
COMPOUNDNAME: Training-281
FORMULA: C15H17Cl2N3O2
SMILES: CCCC1COC(Cn2cncn2)(O1)c1ccc(Cl)cc1Cl
INCHIKEY: STJLVHWMYQXCPB-UHFFFAOYSA-N
PRECURSORTYPE: [M+H]+
IONMODE: positive
CHARGE: 1
PARENTMASS: 341.06978214400004
NUM PEAKS: 19
53.0024     0.003921525338568623
53.9976     0.0012363337125160553
67.0543     0.011748969961642982
69.0699     0.3632882511884262
70.04       0.04113847004814215
87.0804     0.0041978615352961015
122.9997    0.001756193957091066
158.9763    0.8202973002862533
169.005     0.0013227660823597975
172.9556    0.02384045639153034
172.9921    0.005242909028815559
186.9712    0.044752986893586706
190.966     0.01341967648878351
204.9818    0.04022713855305632
220.0271    0.0012547088606787518
256.0038    0.0029720320633944554
259.0287    0.011884817192811785
273.0444    0.008312528493655047
342.0772    1.0


