PRECURSORMZ: 95.060374192
COMPOUNDNAME: Training-078
FORMULA: C5H6N2
SMILES: NC1=NC=CC=C1
INCHIKEY: ICSNLGPSRYBMBD-UHFFFAOYSA-N
PRECURSORTYPE: [M+H]+
IONMODE: positive
CHARGE: 1
PARENTMASS: 94.053098192
NUM PEAKS: 3
67.0543     0.0028300203657575388
78.0338     0.018311565574071157
95.0603     1.0


