PRECURSORMZ: 200.00693741999999
COMPOUNDNAME: Training-228
FORMULA: C8H10BrN
SMILES: CN(C)C1=CC(Br)=CC=C1
INCHIKEY: USEXQPWLCGBYNT-UHFFFAOYSA-N
PRECURSORTYPE: [M+H]+
IONMODE: positive
CHARGE: 1
PARENTMASS: 198.99966142
NUM PEAKS: 11
53.0387     0.004171777036072447
77.0385     0.004568307758888335
81.0335     0.0012554435741612786
95.0491     0.019951653258230596
105.0447    0.007159424155772139
106.065     0.006126875885125573
120.0807    0.0032114610998551702
121.0885    0.03590083162372776
183.9756    0.04977188594906214
184.9834    0.5492419534164533
200.0068    1.0


