PRECURSORMZ: 288.174675672
COMPOUNDNAME: Training-213
FORMULA: C21H21N
SMILES: C(N(CC1=CC=CC=C1)CC1=CC=CC=C1)C1=CC=CC=C1
INCHIKEY: MXHTZQSKTCCMFG-UHFFFAOYSA-N
PRECURSORTYPE: [M+H]+
IONMODE: positive
CHARGE: 1
PARENTMASS: 287.167399672
NUM PEAKS: 13
65.0386     0.012369218989846
91.0542     1.0
106.065     0.002702180589138485
115.0541    0.0010153240139549003
120.0807    0.029489179523618063
141.0695    0.002472771850865316
153.0699    0.003225829603550052
165.0699    0.010498569954704863
166.0776    0.030502869608746812
179.0853    0.007093436625599542
181.101     0.12346528063835582
196.112     0.07202911139722022
288.1746    0.5699063187629085


