PRECURSORMZ: 165.97906516
COMPOUNDNAME: Training-010
FORMULA: C7H5NS2
SMILES: SC1=NC2=CC=CC=C2S1
INCHIKEY: YXIWHUQXZSMYRE-UHFFFAOYSA-N
PRECURSORTYPE: [M-H]-
IONMODE: negative
CHARGE: -1
PARENTMASS: 166.98634116
NUM PEAKS: 3
134.0069    0.15032088905889987
165.979     1.0
180.9541    0.00163109660872277


