PRECURSORMZ: 202.08539906399997
COMPOUNDNAME: Training-178
FORMULA: C7H12ClN5
SMILES: CC(C)(C)Nc1nc(N)nc(Cl)n1
INCHIKEY: LMKQNTMFZLAJDV-UHFFFAOYSA-N
PRECURSORTYPE: [M+H]+
IONMODE: positive
CHARGE: 1
PARENTMASS: 201.07812306399998
NUM PEAKS: 15
61.9792     0.0025609700175320124
68.0244     0.023989680213715104
71.0604     0.04520169264074001
79.0058     0.007877689714843135
90.0105     0.004878203391253455
96.0556     0.07779861529309075
104.001     0.07659782945287867
107.0371    0.0011140005537986864
124.0869    0.17154092042479166
132.0323    0.17839470465090126
138.0774    0.004763672144624669
146.0227    0.0037302492069359234
166.1087    0.023077591999482183
174.0541    0.044481825443618526
202.0853    1.0


