PRECURSORMZ: 86.096425352
COMPOUNDNAME: Training-060
FORMULA: C5H11N
SMILES: C1CCNCC1
INCHIKEY: NQRYJNQNLNOLGT-UHFFFAOYSA-N
PRECURSORTYPE: [M+H]+
IONMODE: positive
CHARGE: 1
PARENTMASS: 85.08914935199999
NUM PEAKS: 3
67.0542     0.0010199710478307794
69.0698     0.03160920494137536
86.0962     1.0


