PRECURSORMZ: 256.169590292
COMPOUNDNAME: Training-150
FORMULA: C17H21NO
SMILES: CN(C)CCOC(c1ccccc1)c1ccccc1
INCHIKEY: ZZVUWRFHKOJYTH-UHFFFAOYSA-N
PRECURSORTYPE: [M+H]+
IONMODE: positive
CHARGE: 1
PARENTMASS: 255.16231429200002
NUM PEAKS: 8
88.0757     0.0024307522559916766
151.054     0.001446073692195137
152.062     0.03978659960136651
165.0699    0.050131136409078854
166.0778    0.01757561962069663
167.0855    1.0
169.0649    0.0013123133374926882
256.1695    0.003466719503650321


