PRECURSORMZ: 334.104939348
COMPOUNDNAME: Training-248
FORMULA: C18H14F3NO2
SMILES: CNC1=C(C(=O)C(O1)c1ccccc1)c1cccc(c1)C(F)(F)F
INCHIKEY: NYRMIJKDBAQCHC-UHFFFAOYSA-N
PRECURSORTYPE: [M+H]+
IONMODE: positive
CHARGE: 1
PARENTMASS: 333.097663348
NUM PEAKS: 54
53.0388     0.002352130706554624
58.0289     0.048921940995988775
77.0385     0.003868633439369656
91.0542     0.002383191019970543
95.0492     0.008806849940894158
103.0542    0.02098809876947689
105.0335    0.18640486320797878
118.0651    0.001912346304519789
120.0808    0.043630460095809016
131.0491    0.01638429630289641
159.0414    0.001211184812012432
171.0415    0.014751163069769981
173.0209    0.002079251820400887
178.0777    0.08214880910215201
188.0683    0.0016285499477566344
196.0687    0.0032850275901050476
197.021     0.00902283737924256
199.0364    0.008401567928181607
200.0681    0.0016592938862718012
207.0605    0.01614632103953967
209.0762    0.010122944162689383
210.0524    0.0020667889091319632
214.0584    0.0012220697688747604
225.0157    0.015830293182683537
227.0666    0.07348666263035016
228.0631    0.005777111760955611
229.0823    0.0063518713344785545
237.0712    0.005698564543431356
238.0469    0.0024236858542970906
243.0263    0.005419664618623431
246.0652    0.003690708069164903
247.0729    0.38768484411111015
249.0885    0.0046958147566846424
255.0613    0.001968168026986502
255.081     0.001451832889855047
256.0578    0.009682230697626026
257.0427    0.001153892591920283
257.0771    0.01279177513806121
259.0735    0.002233114711820283
262.0598    0.0016530837605778059
269.0979    0.002327429713118988
275.0678    0.0874469633912733
275.0874    0.015131049309472578
277.0835    0.024054479481196815
278.1149    0.0026534616579446807
279.0999    0.0029565790206730245
283.056     0.0014917503169283263
286.1039    0.004416381006880186
288.0994    0.009376512696318466
303.0628    0.08449046300313755
306.11      0.06267211071313669
314.098     0.0024619038039516055
316.0948    0.007263631054105827
334.1049    1.0


