PRECURSORMZ: 183.00474522800002
COMPOUNDNAME: Training-004
FORMULA: C6H4N2O5
SMILES: OC1=C(C=C(C=C1)[N+]([O-])=O)[N+]([O-])=O
INCHIKEY: UFBJCMHMOXMLKC-UHFFFAOYSA-N
PRECURSORTYPE: [M-H]-
IONMODE: negative
CHARGE: -1
PARENTMASS: 184.012021228
NUM PEAKS: 9
79.0172     0.002495112641348778
95.0125     0.0406726915353866
108.0082    0.0015407713140562292
109.0159    0.023649192425323547
123.0082    0.13368380845267683
125.0113    0.006386166321390583
137.0117    0.03076359508001475
153.0068    0.13791598252487447
183.0048    1.0


