PRECURSORMZ: 319.00465692
COMPOUNDNAME: Training-026
FORMULA: C15H10Cl2N2O2
SMILES: OC1N=C(c2ccccc2Cl)c2cc(Cl)ccc2NC1=O
INCHIKEY: DIWRORZWFLOCLC-UHFFFAOYSA-N
PRECURSORTYPE: [M-H]-
IONMODE: negative
CHARGE: -1
PARENTMASS: 320.01193292
NUM PEAKS: 6
116.0131    0.0245854082495537
151.9907    0.03065864887719628
179.9859    0.016050455698581226
255.0337    0.03675831532462651
283.0281    1.0
319.0048    0.18759278398947665


