PRECURSORMZ: 161.059705496
COMPOUNDNAME: Training-310
FORMULA: C10H8O2
SMILES: CC1=CC(=O)OC2=CC=CC=C12
INCHIKEY: PSGQCCSGKGJLRL-UHFFFAOYSA-N
PRECURSORTYPE: [M+H]+
IONMODE: positive
CHARGE: 1
PARENTMASS: 160.052429496
NUM PEAKS: 14
59.0494     0.0025985486003645064
79.0543     0.06449568055828682
90.0464     0.016155065881120704
91.0544     0.011625238925406475
95.0492     0.004035373159916861
101.0598    0.0093156064645471
103.0543    0.0601043329826374
105.0449    0.0035834165367648217
105.0699    0.05986882108480254
117.0699    0.0024892355308034214
118.0414    0.10660948992566552
133.0649    0.7807475527364867
146.0364    0.0037352267789712355
161.0598    1.0


