PRECURSORMZ: 262.087397464
COMPOUNDNAME: Training-200
FORMULA: C14H12FNO3
SMILES: CC1CCc2cc(F)cc3C(=O)C(=CN1c23)C(O)=O
INCHIKEY: DPSPPJIUMHPXMA-UHFFFAOYSA-N
PRECURSORTYPE: [M+H]+
IONMODE: positive
CHARGE: 1
PARENTMASS: 261.080121464
NUM PEAKS: 10
174.0352    0.0014350480074656101
176.0872    0.0025951439537790907
202.0297    0.043131301915557765
216.0823    0.0010448399771939587
220.0404    0.05374916021244052
234.0561    0.0036643019018342145
238.0509    0.016919356689980063
244.0768    0.2828519902887185
252.0665    0.003602202068013903
262.0874    1.0


