PRECURSORMZ: 305.10832616199997
COMPOUNDNAME: Training-285
FORMULA: C12H21N2O3PS
SMILES: CCOP(=S)(OCC)OC1=CC(C)=NC(=N1)C(C)C
INCHIKEY: FHIVAFMUCKRCQO-UHFFFAOYSA-N
PRECURSORTYPE: [M+H]+
IONMODE: positive
CHARGE: 1
PARENTMASS: 304.101050162
NUM PEAKS: 23
70.0652     0.009591082305612625
84.0444     0.027652370108302474
96.9508     0.03529682984162563
98.0965     0.001479244094120489
98.9842     0.005630375225635244
100.0216    0.03629787421832959
109.0049    0.01013313369519322
110.9664    0.004281249595060681
112.9999    0.0013715306174465827
114.9614    0.16850551903257582
124.982     0.005966955629836198
128.977     0.00917657820591528
142.9929    0.0026560833254484773
153.1023    0.4249249532837553
168.0722    0.0023360626472603853
169.0794    0.7629302472617545
171.024     0.00577247530878686
181.1336    0.014318820476250202
197.1107    0.0030975187549555404
231.0354    0.002301555514032721
249.0458    0.00403489845741652
277.0772    0.006172629466893262
305.1085    1.0


