PRECURSORMZ: 255.083812068
COMPOUNDNAME: Training-302
FORMULA: C16H14OS
SMILES: CC(C)C1=CC2=C(SC3=CC=CC=C3C2=O)C=C1
INCHIKEY: KTALPKYXQZGAEG-UHFFFAOYSA-N
PRECURSORTYPE: [M+H]+
IONMODE: positive
CHARGE: 1
PARENTMASS: 254.076536068
NUM PEAKS: 7
184.034     0.011829073142045538
185.0415    0.0030646007389388435
212.0293    0.0015899569519090826
213.0369    0.8503021944390695
239.0534    0.00303822426734659
240.0608    0.0041709227718740765
255.0839    1.0


