PRECURSORMZ: 296.02395995200004
COMPOUNDNAME: Training-275
FORMULA: C14H11Cl2NO2
SMILES: OC(=O)Cc1ccccc1Nc1c(Cl)cccc1Cl
INCHIKEY: DCOPUUMXTXDBNB-UHFFFAOYSA-N
PRECURSORTYPE: [M+H]+
IONMODE: positive
CHARGE: 1
PARENTMASS: 295.01668395200005
NUM PEAKS: 8
179.0729    0.002147374747248087
180.0806    0.013152728141929013
214.0417    0.7973730328395974
215.0495    1.0
243.0402    0.0060625554356246196
250.0185    0.5309313004039179
278.0134    0.28765241893170723
296.024     0.16509106222529893


