PRECURSORMZ: 254.14339260799997
COMPOUNDNAME: Training-226
FORMULA: C11H19N5S
SMILES: CSC1=NC(NC2CC2)=NC(NC(C)(C)C)=N1
INCHIKEY: HDHLIWCXDDZUFH-UHFFFAOYSA-N
PRECURSORTYPE: [M+H]+
IONMODE: positive
CHARGE: 1
PARENTMASS: 253.13611660799998
NUM PEAKS: 28
56.0497     0.01558950976677597
57.0701     0.00591268920955321
58.0653     0.00592359022125169
68.0244     0.0057961768898731215
70.0401     0.0019234608644315434
74.0059     0.01435224785143116
81.0449     0.0038554101260895187
83.0604     0.08807655414579871
87.0263     0.00780990972713104
89.042      0.0021388310086444587
91.0325     0.11933370528833263
108.0557    0.05076934375094094
114.0121    0.003808471567845882
114.0373    0.009635205701987695
116.0277    0.024580060804426467
125.0822    0.036370421924578566
127.0075    0.001047101564863551
131.0637    0.001162213228430792
150.0775    0.014889424786469393
152.0932    0.0026373642179051706
156.0339    0.014000008154811661
156.059     0.028288965482384888
158.0495    0.003960834366276144
170.0495    0.008584160255132691
171.07      0.004512118901455464
198.0809    1.0
239.1204    0.0010069050643710365
254.1435    0.8063192442084707


