PRECURSORMZ: 166.049869084
COMPOUNDNAME: Training-090
FORMULA: C8H7NO3
SMILES: NC(=O)C1=CC=CC=C1C(O)=O
INCHIKEY: CYMRPDYINXWJFU-UHFFFAOYSA-N
PRECURSORTYPE: [M+H]+
IONMODE: positive
CHARGE: 1
PARENTMASS: 165.042593084
NUM PEAKS: 15
59.0493     0.0010199762634962412
65.0386     0.005795838414297539
72.0445     0.0010146106827474497
87.0441     0.009968568015236597
93.0335     0.00430996464701392
111.0439    0.0011711205458198926
120.0444    0.0022176977077207195
121.0285    0.03988269189535219
121.0397    0.005697916565632093
124.0393    0.0014393376727123693
130.0288    0.021139727771069657
138.0552    0.0023451921610516207
148.0393    0.10621078353782043
149.0234    1.0
166.05      0.004404192499702314


