PRECURSORMZ: 347.1019812959999
COMPOUNDNAME: Training-269
FORMULA: C12H18N4O6S
SMILES: CCCN(CCC)C1=C(C=C(C=C1[N+]([O-])=O)S(N)(=O)=O)[N+]([O-])=O
INCHIKEY: UNAHYJYOSSSJHH-UHFFFAOYSA-N
PRECURSORTYPE: [M+H]+
IONMODE: positive
CHARGE: 1
PARENTMASS: 346.0947052959999
NUM PEAKS: 172
52.0184     0.008047708921954395
53.0024     0.007480512273956484
56.0133     0.04619047952771229
56.0497     0.0037618198164104276
57.0337     0.021972814309945188
58.0289     0.0011997312446753435
58.0653     0.0061851101715336785
59.0494     0.0046404319348748125
60.0809     0.00451784241730284
63.9853     0.0065561492156301455
64.0183     0.0027188924606727904
65.0261     0.006848444890333416
66.0213     0.0013813333649600633
66.0339     0.0020526825846154287
68.0132     0.002680652869146382
70.0289     0.0024869750883796385
70.0653     0.0012941082816568742
77.0261     0.0011588321326856323
78.0339     0.017210619465209968
79.0291     0.008343526664298256
79.0418     0.001732030671458835
80.0132     0.007429514172099366
80.0368     0.0012915206401250118
80.0495     0.002591379236297135
84.0444     0.005415789968324752
85.0888     0.001203397070178815
91.0291     0.0013798239073998103
91.0542     0.0023857336134455293
92.0133     0.0016085786067095748
92.0369     0.00981107880752134
92.0495     0.002139907667918618
93.021      0.002335633998231419
93.0448     0.006072619643829113
93.07       0.001057734415614404
94.0288     0.002658514158262672
94.0526     0.0015929089996555201
95.0241     0.00494872067182362
96.0081     0.001658786040320846
102.0549    0.0025704265277821953
103.0543    0.0016700710325570228
104.0245    0.0014381895997295914
104.0494    0.006988536927711179
105.0211    0.0010336190341160769
105.0448    0.011728269606371204
105.0572    0.0023055167259578
106.0526    0.0016128194636645713
107.024     0.0026683615718700367
108.0079    0.0014878220018893378
109.0158    0.0020305438737317186
115.0545    0.0017132343308871136
117.0321    0.0017574758131888137
117.0448    0.0023345558142598096
117.0574    0.025357701009881016
118.0397    0.0011426953125772137
118.0649    0.0018565249807139842
119.0241    0.013063384818414951
120.0557    0.002179261382882356
120.0807    0.0063240880854741124
121.0396    0.00861404302277502
122.0239    0.0011329916568327304
123.0188    0.001731563458404471
124.0266    0.0012686272004611753
125.0343    0.0010633409722667722
130.0652    0.0017013743071994118
131.0241    0.001374576745404645
131.0603    0.005069153821452376
131.0731    0.002018216636989653
132.0187    0.001103125960819154
132.0317    0.015843230612949386
132.0557    0.001274880667496509
132.0808    0.01851942698834645
133.0397    0.032699415067225665
133.0521    0.002303863510534666
134.0351    0.0011814739960894268
134.0475    0.005388008761322953
135.0188    0.0021939606243619623
135.0426    0.0019519083227356835
136.0268    0.005318034621565513
137.0347    0.001783495986370317
143.0599    0.0015632589404362654
144.1019    0.007375497155121743
145.0397    0.03959285616864091
145.076     0.007143004751377065
145.1052    0.011990052674677934
146.0843    0.0011502785398441989
148.0142    0.007389333849424061
148.0505    0.006425185802545341
148.0756    0.006236395789116559
149.0222    0.0021853710920548084
149.0347    0.015795467063007093
150.0301    0.0018776573865575256
150.0421    0.0012657161037378302
151.05      0.001914028125866478
152.0215    0.005057509434558995
159.0552    0.0025096528912491533
160.0636    0.001424856057947357
161.0456    0.0011125061613721544
161.0708    0.0142776356072413
163.0503    0.0013780988130452354
165.0172    0.0016246794873522733
165.0295    0.0025180627262277053
166.0371    0.0011431625256315778
167.0453    0.002337395032051714
168.0167    0.001822957519731216
170.0144    0.009301205607347322
171.0223    0.010490801922689537
176.0817    0.0012766057618510836
177.066     0.01315535391119322
178.0249    0.004990697967784941
178.0739    0.005411549111369755
179.0325    0.004897830388363664
180.0404    0.004977867578522791
182.0197    0.005767062306275049
182.0962    0.001142839070440095
184.0352    0.00437455176747597
194.0187    0.0013674966706577443
196.0353    0.002364062115616183
197.0252    0.008643549324131392
198.0146    0.14688175718110957
201.0206    0.0017776378534579067
206.0308    0.009635047304423267
212.0124    0.014332335474067608
213.0204    0.024933723132778536
214.0164    0.0013295445948570985
214.0285    0.004311118610479624
217.0151    0.007992685599936603
218.0227    0.0013424109235849687
223.041     0.0014679115378802867
224.0489    0.004703613515611116
224.0667    0.005013267952257295
225.057     0.009473355648147599
227.0236    0.0011028743845591115
227.9958    0.0030159321448511417
228.0074    0.04153585150387796
229.9866    0.0021444001011336564
230.012     0.0010136366911755853
230.0234    0.005012117889354245
231.0183    0.017743242347184943
231.9792    0.0016926410170293768
232.0024    0.0204254406133573
238.028     0.0015740767196180787
240.044     0.01330651530401284
240.0616    0.10377869339556611
241.0513    0.002635836355393157
241.9868    0.004261270571525556
242.0105    0.01402853917033384
243.0184    0.10641686581623108
244.9862    0.0011970717242120407
244.9979    0.010518870645417098
245.9817    0.13346318262298082
246.0053    0.0073859555396463515
247.0133    0.12680262925943317
255.0179    0.0014975975365652617
256.0388    0.01747283380710534
256.0555    0.0023689139434884244
259.0133    0.096247506474944
263.0083    0.09134166158572471
267.1222    0.001692461319700775
269.0341    0.01239480293762005
270.0421    0.008506152746682653
271.0496    0.02255330856025961
271.0874    0.0013259506482850676
278.0078    0.002201400093766066
287.0446    0.05679603616444678
288.0287    0.2310039348324044
289.0601    0.005244250898441718
301.0604    0.04470082461307122
305.0552    0.21147583079915178
309.0607    0.0069014915417365905
313.097     0.009482951485494922
329.0918    0.002420882410919991
347.1022    1.0


