PRECURSORMZ: 349.933559882
COMPOUNDNAME: Training-305
FORMULA: C9H11Cl3NO3PS
SMILES: CCOP(=S)(OCC)OC1=NC(Cl)=C(Cl)C=C1Cl
INCHIKEY: SBPBAQFWLVIOKP-UHFFFAOYSA-N
PRECURSORTYPE: [M+H]+
IONMODE: positive
CHARGE: 1
PARENTMASS: 348.926283882
NUM PEAKS: 33
64.9788     0.005557084215482145
78.9402     0.0016915056952385148
96.9507     0.10848703441359914
106.945     0.003182413470698685
110.9665    0.015214662328161746
112.9997    0.008796944048127935
114.9613    1.0
124.982     0.0219464560989949
128.9769    0.061835149018693206
132.9718    0.0016863315425458194
133.9558    0.0222717201421981
142.9926    0.019586511788798344
146.9874    0.0016229592279421228
150.9171    0.001260856986508021
153.0133    0.007341680435661888
157.0084    0.0068023302968575035
171.0239    0.13841592563513166
177.9279    0.0024594030230672575
179.9612    0.037267166445593254
186.038     0.0014435886012620159
195.9383    0.0012994199023031526
197.9274    0.9502966027751679
212.8973    0.003236100832826311
213.9046    0.09972573452846532
224.0495    0.0015051035277196165
225.9584    0.007010225098638367
275.8605    0.027845830415686123
277.8946    0.0017784049263594249
293.8709    0.11841963864248278
303.8921    0.003155525566107584
307.8871    0.007541216990785321
321.9023    0.2572790820327857
349.9337    0.3634124518770632


