PRECURSORMZ: 531.156036736
COMPOUNDNAME: Training-198
FORMULA: C26H28Cl2N4O4
SMILES: CC(=O)N1CCN(CC1)c1ccc(OC[C@@H]2CO[C@](Cn3ccnc3)(O2)c2ccc(Cl)cc2Cl)cc1
INCHIKEY: XMAYWYJOQHXEEK-ZEQKJWHPSA-N
PRECURSORTYPE: [M+H]+
IONMODE: positive
CHARGE: 1
PARENTMASS: 530.148760736
NUM PEAKS: 102
54.034      0.0037907821910529355
56.0496     0.005975436095495455
58.0652     0.0010224041024093024
68.037      0.004137361035588535
69.0448     0.01945921083100563
70.0652     0.012703634422030033
71.0604     0.017050493934876683
81.0447     0.07244183498150587
82.0525     0.24445243318233412
83.0603     0.006527184509176769
86.06       0.01427543382120343
107.0491    0.0028768527726721073
107.0604    0.0012879070207394757
109.0759    0.0011012380418759188
112.0757    0.08074580496498623
113.0707    0.0010028503598550243
118.0651    0.0030087642944422507
120.0444    0.011497977947637529
120.0808    0.0037582869515596475
122.06      0.012003697792075954
127.0501    0.004812586707383385
129.0696    0.0011707473840472887
130.0652    0.002826009423839129
131.0492    0.0011714464704021567
131.0729    0.0013501373362251302
132.0807    0.00496379352943244
133.0647    0.001010457608230456
134.06      0.009799244624917557
135.0678    0.054374826843675506
136.0756    0.020742221662838276
144.0808    0.010339466513117497
145.0649    0.0015796095247349934
145.0887    0.0055259235693152515
146.0601    0.006716543872126897
146.0964    0.014231780336471168
148.0756    0.04025039179848945
149.015     0.0013036332331955664
150.0229    0.003104492605449617
156.0807    0.0031850826601773534
158.0964    0.0044465484517240165
158.9763    0.019595029999979325
160.0757    0.004541195181808972
161.0832    0.0011308632799012545
162.0911    0.0028435214724180065
163.0308    0.003756512745339252
163.123     0.004560265637308314
167.0257    0.004972867437720581
167.0816    0.03127796345419472
169.9685    0.013783353267847506
172.0756    0.00767474316006674
172.112     0.0025379005596825916
172.9555    0.01685487639222854
173.0836    0.0011842858826423964
174.0914    0.03996295488424887
176.0945    0.001583953939383915
177.1022    0.05380903855338487
178.1102    0.011515674782443292
179.0257    0.0013332365036274958
184.992     0.014726543520645402
185.9634    0.03701378608629491
186.971     0.0028892980604424117
188.1071    0.0031294904345345043
189.1383    0.005833615896887735
190.0867    0.0010466201436112035
192.1017    0.005857689794838184
200.1071    0.005862576938265376
202.9661    0.004089752091831777
203.0371    0.010375338300938456
204.1021    0.0038524620244920578
205.0971    0.0024351775084924133
205.1339    0.0014702587213930246
209.0366    0.008154667881000771
215.118     0.003593872437027955
216.1019    0.01799563930348773
216.1256    0.0032721634926509355
217.1336    0.0440999205031561
218.1177    0.0012775964661637035
219.1128    0.049726655943035186
220.1206    0.03482744843042837
233.0478    0.0013277342675849294
233.1287    0.0014170687166997129
234.1126    0.00882498185735227
235.1442    0.017361464602712196
238.0058    0.013367725108390691
239.0136    0.0027365560912776766
244.0053    0.07275621062631935
247.0633    0.005893282465001747
247.1442    0.0015348977188851007
255.0086    0.070996057204647
259.144     0.006734751130426512
267.0087    0.03058866947714026
268.0163    0.0031816053193622885
277.1546    0.001532943895283325
281.0245    0.005186861518358706
282.0323    0.009871471487614414
311.035     0.007994309617980967
378.0656    0.004806944912512121
420.0765    0.003825227377513868
421.1079    0.006973483305662781
446.1031    0.006748457616500609
489.1457    0.09739447543454484
531.1563    1.0


