PRECURSORMZ: 176.070604528
COMPOUNDNAME: Training-139
FORMULA: C10H9NO2
SMILES: CC1=CC(=O)OC2=CC(N)=CC=C12
INCHIKEY: GLNDAGDHSLMOKX-UHFFFAOYSA-N
PRECURSORTYPE: [M+H]+
IONMODE: positive
CHARGE: 1
PARENTMASS: 175.063328528
NUM PEAKS: 22
68.0133     0.0016035918611969058
79.0543     0.0014314624554229419
91.0543     0.0027469834026917824
93.0573     0.0010142062854387947
93.0698     0.00153531483743461
103.0542    0.009849713084962628
105.0699    0.009753014296848272
109.0647    0.0013641158631419405
115.0542    0.020387433090913374
117.0573    0.045876838795277736
118.0652    0.0012172275221473225
120.0808    0.08655867855959286
130.0651    0.01069786652500518
131.0492    0.0037582603660900092
131.0729    0.00864866867112852
132.0808    0.026521536337161835
133.0523    0.004652075844708815
133.0649    0.003212224030132779
134.0601    0.0017102999505309094
143.0607    0.0014281414277935982
148.0757    0.016798272215717357
176.0706    1.0


