PRECURSORMZ: 138.054954464
COMPOUNDNAME: Training-105
FORMULA: C7H7NO2
SMILES: NC1=C(C=CC=C1)C(O)=O
INCHIKEY: RWZYAGGXGHYGMB-UHFFFAOYSA-N
PRECURSORTYPE: [M+H]+
IONMODE: positive
CHARGE: 1
PARENTMASS: 137.047678464
NUM PEAKS: 4
65.0386     0.005766074671617131
92.0495     0.061150707681908535
120.0444    1.0
138.055     0.016321739530844162


