PRECURSORMZ: 110.060039844
COMPOUNDNAME: Training-072
FORMULA: C6H7NO
SMILES: NC1=C(O)C=CC=C1
INCHIKEY: CDAWCLOXVUBKRW-UHFFFAOYSA-N
PRECURSORTYPE: [M+H]+
IONMODE: positive
CHARGE: 1
PARENTMASS: 109.052763844
NUM PEAKS: 6
65.0387     0.04317425664437087
67.0543     0.0015720384441406032
82.0651     0.006674102807720832
92.0494     0.28884426513904804
93.0335     0.034654057663485546
110.06      1.0


