PRECURSORMZ: 240.11496787599998
COMPOUNDNAME: Training-123
FORMULA: C13H18ClNO
SMILES: CC(NC(C)(C)C)C(=O)c1cccc(Cl)c1
INCHIKEY: SNPPWIUOZRMYNY-UHFFFAOYSA-N
PRECURSORTYPE: [M+H]+
IONMODE: positive
CHARGE: 1
PARENTMASS: 239.107691876
NUM PEAKS: 11
57.07       0.09727461882549632
103.0542    0.014215543644217638
130.065     0.011871821140485362
131.0729    0.3601410751153575
132.0567    0.0031262459155385423
139.0308    0.13514289306965097
151.0185    0.002210914075798592
166.0418    0.42716260211502805
167.0258    0.2103424560343699
184.0524    1.0
240.1149    0.22005286918345407


