PRECURSORMZ: 327.137100288
COMPOUNDNAME: Training-143
FORMULA: C18H19ClN4
SMILES: CN1CCN(CC1)C1=C2C=CC=CC2=Nc2ccc(Cl)cc2N1
INCHIKEY: ZUXABONWMNSFBN-UHFFFAOYSA-N
PRECURSORTYPE: [M+H]+
IONMODE: positive
CHARGE: 1
PARENTMASS: 326.129824288
NUM PEAKS: 29
58.0653     0.009833239221085435
82.0651     0.0019222729227647564
84.0808     0.15606978338020464
85.076      0.008099237723406967
99.0917     0.0015720329419684383
191.0603    0.001835329078314581
192.0681    0.12491682100785412
200.0261    0.0018492790356759708
206.0839    0.002505269488628037
218.0837    0.002438000612291313
220.0871    0.002676025598821339
226.0292    0.00403598363860201
227.0371    0.09698754195913216
228.045     0.004144045119085876
229.0528    0.006786202811060729
234.1027    0.0038477633102694904
235.1104    0.007044526798399171
241.053     0.002029173854639085
243.0686    0.002297190461301493
244.0637    0.002556809262123738
246.1031    0.0013224541096792906
253.0527    0.009823587370447986
254.0607    0.0016431574488847643
255.0559    0.007541491651225299
268.0631    0.0031369607172505682
270.0793    1.0
281.0716    0.0025106803087026684
296.0951    0.08458344621729645
327.1372    0.9244637776199698


