PRECURSORMZ: 399.250616218
COMPOUNDNAME: Training-299
FORMULA: C18H39O7P
SMILES: CCCCOCCOP(=O)(OCCOCCCC)OCCOCCCC
INCHIKEY: WTLBZVNBAKMVDP-UHFFFAOYSA-N
PRECURSORTYPE: [M+H]+
IONMODE: positive
CHARGE: 1
PARENTMASS: 398.243340218
NUM PEAKS: 20
53.0388     0.012215241769028889
55.0544     0.3843095375598783
57.0701     1.0
59.0493     0.07958372321422612
83.0855     0.2470597336332655
89.0598     0.009178218863977579
98.9842     0.30391136896753784
101.0961    0.25960527581912435
124.9998    0.0718115259727837
143.0104    0.13613740189614404
145.1228    0.0019512660145594972
151.0157    0.0020792998604813903
169.026     0.0025299613323905095
199.073     0.6533939053699441
225.0886    0.021526495021925867
243.0993    0.021011860384351055
255.1358    0.00428080875855791
299.1619    0.9500983663997377
343.188     0.003600639255414467
399.2508    0.7167964352010222


