PRECURSORMZ: 266.99850892
COMPOUNDNAME: Training-051
FORMULA: C13H10Cl2O2
SMILES: OC1=CC=C(Cl)C=C1CC1=C(O)C=CC(Cl)=C1
INCHIKEY: MDNWOSOZYLHTCG-UHFFFAOYSA-N
PRECURSORTYPE: [M-H]-
IONMODE: negative
CHARGE: -1
PARENTMASS: 268.00578492
NUM PEAKS: 3
126.9952    1.0
231.0213    0.0036775341728503175
266.9985    0.6318796182055847


