PRECURSORMZ: 214.11209247999997
COMPOUNDNAME: Training-151
FORMULA: C8H15N5S
SMILES: CCNc1nc(NCC)nc(SC)n1
INCHIKEY: MGLWZSOBALDPEK-UHFFFAOYSA-N
PRECURSORTYPE: [M+H]+
IONMODE: positive
CHARGE: 1
PARENTMASS: 213.10481647999998
NUM PEAKS: 18
68.0244     0.030802872409828683
71.0604     0.061184635181963855
74.0059     0.006803945100705608
91.0324     0.003428166813048283
96.0556     0.09800176968070819
102.0372    0.007242228782201214
113.0823    0.0023334441276962087
116.0277    0.026916880227354046
119.0637    0.0011284012471000104
124.0869    0.19530720459578438
138.0774    0.003635954850702459
141.1133    0.0014783927089467024
144.0589    0.079116011509977
158.0492    0.0016145749301421286
166.1087    0.03886438881484634
186.0808    0.025115425351675467
199.0883    0.002158539513614605
214.112     1.0


