PRECURSORMZ: 231.0097423
COMPOUNDNAME: Training-023
FORMULA: C9H10Cl2N2O
SMILES: CN(C)C(=O)NC1=CC=C(Cl)C(Cl)=C1
INCHIKEY: XMTQQYYKAHVGBJ-UHFFFAOYSA-N
PRECURSORTYPE: [M-H]-
IONMODE: negative
CHARGE: -1
PARENTMASS: 232.0170183
NUM PEAKS: 6
111.9849    0.002094522867636286
149.9753    0.08506238361114152
159.9727    0.10771467157304088
185.952     0.37567756766281096
217.9776    0.003860610606112597
231.0098    1.0


