PRECURSORMZ: 278.139782152
COMPOUNDNAME: Training-042
FORMULA: C15H21NO4
SMILES: CCC1=CC=CC(C)=C1N(C(C)COC)C(=O)C(O)=O
INCHIKEY: LNOOSYCKMKZOJB-UHFFFAOYSA-N
PRECURSORTYPE: [M-H]-
IONMODE: negative
CHARGE: -1
PARENTMASS: 279.147058152
NUM PEAKS: 18
134.0975    0.00623387386567538
135.0814    0.006964383838731056
142.066     0.0030128643471890467
143.0739    0.0037983041399241037
144.0819    0.03169878787800513
156.0819    0.015476171197838652
158.0976    0.12034609859689033
160.1132    0.04721705306137128
170.0975    0.011797135006051817
172.1132    0.06134612730862462
174.1289    0.11453195253403906
175.1004    0.0158364885608576
189.1159    0.001363896792342928
190.1237    0.004916094675602606
204.1392    0.008235876533979046
206.1551    1.0
250.1449    0.009287192947126396
278.1397    0.020506993592315826


