PRECURSORMZ: 136.05053777999998
COMPOUNDNAME: Training-096
FORMULA: C6H5N3O
SMILES: OC1=C2N=NNC2=CC=C1
INCHIKEY: JMTMSDXUXJISAY-UHFFFAOYSA-N
PRECURSORTYPE: [M+H]+
IONMODE: positive
CHARGE: 1
PARENTMASS: 135.04326178
NUM PEAKS: 9
53.0388     0.003442920747843438
54.0341     0.001924072854305236
63.0231     0.0015681089281160707
68.0132     0.00107406212063893
80.0495     0.07277780764966768
81.0336     0.006814091055045617
90.0339     0.002328027487686352
108.0445    0.005723215889302952
136.0506    1.0


