PRECURSORMZ: 346.04434600199994
COMPOUNDNAME: Training-265
FORMULA: C12H16N3O3PS2
SMILES: CCOP(=S)(OCC)SCN1N=Nc2ccccc2C1=O
INCHIKEY: RQVGAIADHNPSME-UHFFFAOYSA-N
PRECURSORTYPE: [M+H]+
IONMODE: positive
CHARGE: 1
PARENTMASS: 345.03707000199995
NUM PEAKS: 51
50.0154     0.003997404515915169
51.0232     0.00600191345817847
53.0388     0.042985253647388456
64.9788     0.004311624902603708
77.0386     0.0937863043702718
81.0335     0.004403982323011988
94.0412     0.006968558483599353
95.0492     0.158528978193916
96.9508     0.21381499952648964
104.0495    0.21179242941474544
105.0335    0.18181069268859068
105.0447    0.057258608775835544
109.0106    0.055953344299072456
110.9664    0.0186034075528538
114.9614    1.0
120.0444    0.014680250440889754
120.9853    0.003999089736596954
123.0267    0.004141136743629759
124.982     0.028779087534819496
126.9437    0.005815488973191985
128.977     0.07142036077521861
130.0398    0.027334682446112472
132.0444    0.5963843346037414
135.9978    0.005548344859896797
136.0215    0.008093382229970709
137.0056    0.7078893423041619
142.9385    0.39683036855593135
142.9927    0.025303295455149102
148.0215    0.04511372400371554
149.0599    0.015106171650594892
150.055     0.05045928064157084
152.9828    0.020766009733859083
153.0005    0.034545118944524306
153.0132    0.028701726136130295
160.0506    0.11391223553865423
164.0708    0.016837210796134275
166.0321    0.06026842512524823
168.9779    0.00798259728775943
170.9698    0.20400165420285185
171.024     0.10728152716652062
172.9824    0.016840410273080853
182.0095    0.009237720343367378
182.0399    0.004799667254397556
185.0396    0.015830682214577806
199.001     0.04613240327062257
214.9382    0.01425973903380803
216.9721    0.016152107530268182
232.9492    0.32529555931528015
260.9804    0.2506403808061424
261.976     0.027783036629675868
289.0117    0.06530132447965606


