PRECURSORMZ: 277.12817898000003
COMPOUNDNAME: Training-189
FORMULA: C12H20O7
SMILES: CCOC(=O)CC(O)(CC(=O)OCC)C(=O)OCC
INCHIKEY: DOOTYTYQINUNNV-UHFFFAOYSA-N
PRECURSORTYPE: [M+H]+
IONMODE: positive
CHARGE: 1
PARENTMASS: 276.12090298000004
NUM PEAKS: 19
68.9972     0.03465455634893826
87.0076     0.01161372425515384
101.0234    0.0060399415464284355
105.0182    0.05904584463576333
111.0077    0.02858316527603288
115.039     0.075739792002466
119.0339    0.009934386394525953
129.0182    0.10771773115855422
133.0495    0.1618652867812279
139.0026    0.0602422261341445
143.0339    0.0011120285149283286
147.0649    0.0025813202302363424
157.0496    1.0
167.0339    0.0037903183344028127
185.0446    0.012823076059605728
189.0757    0.006179568944814359
203.0914    0.12061288563566393
213.0757    0.011744567448649197
277.128     0.0011975566125162326


