PRECURSORMZ: 220.953176694
COMPOUNDNAME: Training-171
FORMULA: C4H7Cl2O4P
SMILES: COP(=O)(OC)OC=C(Cl)Cl
INCHIKEY: OEBRKCOSUFCWJD-UHFFFAOYSA-N
PRECURSORTYPE: [M+H]+
IONMODE: positive
CHARGE: 1
PARENTMASS: 219.94590069400002
NUM PEAKS: 16
76.9788     0.006625720968888262
78.9943     0.06897787862947466
94.9449     0.0022468138605104006
94.9894     0.0013950855402520084
96.9604     0.011586704078673
97.0049     0.002872159841766818
98.9841     0.0010728309861715
108.9607    0.001968617877772279
109.0047    0.003871754371360677
112.9997    0.01002994313724894
127.0154    1.0
128.0218    0.0034021569780834514
130.9659    0.0011664187613200894
144.9815    0.06796701749675882
188.9269    0.0011394121549036988
220.9531    0.4398630382782311


