PRECURSORMZ: 240.07858236799999
COMPOUNDNAME: Training-233
FORMULA: C12H14ClNO2
SMILES: CC1(C)CON(Cc2ccccc2Cl)C1=O
INCHIKEY: KIEDNEWSYUYDSN-UHFFFAOYSA-N
PRECURSORTYPE: [M+H]+
IONMODE: positive
CHARGE: 1
PARENTMASS: 239.071306368
NUM PEAKS: 8
89.0385     0.0042300216171672475
98.9997     0.0015583635945999002
100.0758    0.0026017633407399176
114.0548    0.0018048420055498955
125.0153    1.0
128.0706    0.013985414919314213
140.0261    0.0010939423350513715
240.0786    0.3175850375930581


