PRECURSORMZ: 134.07127322399998
COMPOUNDNAME: Training-138
FORMULA: C7H7N3
SMILES: CC1=CC=C2NN=NC2=C1
INCHIKEY: LRUDIIUSNGCQKF-UHFFFAOYSA-N
PRECURSORTYPE: [M+H]+
IONMODE: positive
CHARGE: 1
PARENTMASS: 133.063997224
NUM PEAKS: 10
53.0387     0.001529226438330506
77.0386     0.008136246524984094
79.0542     0.07229507548727951
80.0495     0.001421717185839983
89.0385     0.00135098293374758
95.0491     0.00937940123655967
96.0445     0.0017236461609131425
105.0447    0.0028566466124945876
106.0651    0.041504609846522975
134.0712    1.0


