PRECURSORMZ: 273.85086191600004
COMPOUNDNAME: Training-018
FORMULA: C7H3Br2NO
SMILES: Oc1c(Br)cc(cc1Br)C#N
INCHIKEY: UPMXNNIRAGDFEH-UHFFFAOYSA-N
PRECURSORTYPE: [M-H]-
IONMODE: negative
CHARGE: -1
PARENTMASS: 274.85813791600003
NUM PEAKS: 3
166.9377    0.002620191938777405
193.9246    0.006988208782117195
273.8508    1.0


