PRECURSORMZ: 191.961359696
COMPOUNDNAME: Training-106
FORMULA: C6H3Cl2NO2
SMILES: OC(=O)c1nc(Cl)ccc1Cl
INCHIKEY: HUBANNPOLNYSAD-UHFFFAOYSA-N
PRECURSORTYPE: [M+H]+
IONMODE: positive
CHARGE: 1
PARENTMASS: 190.954083696
NUM PEAKS: 17
72.9841     0.0023565655948538998
74.0153     0.0023844190575831713
75.0232     0.0018119490745178734
84.984      0.0024935456715973053
108.9841    0.002203117412409246
109.9791    0.002888119451099739
117.9457    0.0028991490157206368
127.9897    0.011624957800479141
136.9669    0.001674816515314271
139.0057    0.007285611948200286
145.9558    0.031255193933800454
159.9459    0.01004717095733673
163.9663    0.36618825464204896
173.951     0.016166292085031946
177.9563    0.03143029462559304
191.9613    1.0
193.9653    0.0016770020972437577


