PRECURSORMZ: 280.112075416
COMPOUNDNAME: Training-307
FORMULA: C21H13N
SMILES: C1=CC=C2C(C=CC3=NC4=C(C=CC5=CC=CC=C45)C=C23)=C1
INCHIKEY: JNCSIWAONQTVCF-UHFFFAOYSA-N
PRECURSORTYPE: [M+H]+
IONMODE: positive
CHARGE: 1
PARENTMASS: 279.104799416
NUM PEAKS: 3
278.0958    0.0018533204285798926
279.1039    0.004463389578152111
280.1119    1.0


