PRECURSORMZ: 179.07027018
COMPOUNDNAME: Training-309
FORMULA: C10H10O3
SMILES: COC1=CC=C(\C=C\C(O)=O)C=C1
INCHIKEY: AFDXODALSZRGIH-QPJJXVBHSA-N
PRECURSORTYPE: [M+H]+
IONMODE: positive
CHARGE: 1
PARENTMASS: 178.06299418
NUM PEAKS: 17
77.0388     0.0015111323572865793
79.0543     0.017786133532999435
90.0464     0.002659074792362367
91.0543     0.0016564572088559916
94.0414     0.0011337833124963864
95.0491     0.002559842941618398
103.0542    0.01920331842636186
105.0699    0.01711375219951013
109.0648    0.005157586820284157
118.0413    0.02974351255130364
132.0684    0.0013013834979808923
133.0648    0.304331123892154
137.0597    0.007471575140019395
146.0362    0.0012759645017312055
146.9949    0.0018433070586091594
161.0597    1.0
179.0704    0.013592909381109807


