PRECURSORMZ: 387.14809434000006
COMPOUNDNAME: Training-022
FORMULA: C21H25ClN2O3
SMILES: OC(=O)COCCN1CCN(CC1)C(c1ccccc1)c1ccc(Cl)cc1
INCHIKEY: ZKLPARSLTMPFCP-UHFFFAOYSA-N
PRECURSORTYPE: [M-H]-
IONMODE: negative
CHARGE: -1
PARENTMASS: 388.15537034000005
NUM PEAKS: 5
101.0232    0.01507839873885766
185.0933    0.008025619193009976
220.0328    0.0016612392985119663
327.0341    0.001831085971862777
387.1483    1.0


