PRECURSORMZ: 325.171067512
COMPOUNDNAME: Training-155
FORMULA: C20H21FN2O
SMILES: CN(C)CCCC1(OCc2cc(ccc12)C#N)c1ccc(F)cc1
INCHIKEY: WSEQXVZVJXJVFP-UHFFFAOYSA-N
PRECURSORTYPE: [M+H]+
IONMODE: positive
CHARGE: 1
PARENTMASS: 324.163791512
NUM PEAKS: 56
58.0653     0.05128683031302615
70.0652     0.002143245459370648
72.0808     0.0027377364051804193
83.0291     0.004452178364210491
84.0808     0.01021108559338395
89.0386     0.0015233496214423572
97.0447     0.001556011711483851
109.0448    0.7205636057615465
116.0494    0.10696704248404393
121.0447    0.005251087322042676
123.024     0.009538048179594895
123.0604    0.0030412179661062585
125.0398    0.001835333941920504
129.0699    0.00745761474169227
130.0651    0.005361799982727735
133.0449    0.0025595624617246026
137.0761    0.00247305567784905
140.0494    0.007720507463738268
142.0651    0.005050947095881983
144.0443    0.008021305002712576
146.0527    0.0014670044055734134
147.0602    0.003758125734357715
154.065     0.004076943860268233
156.0807    0.02329906273971355
158.06      0.0020879139686509817
159.0604    0.0029217948776705414
166.0651    0.05246668554537679
168.0804    0.003705767837409263
184.0757    0.003229138888061399
215.0854    0.012874013110594629
218.06      0.004515881479176179
220.068     0.007590468681344178
221.0634    0.03445947620065159
222.0712    0.017811403744644308
224.0868    0.002242204279053354
227.0728    0.025769786178378103
233.076     0.006101043718881995
234.0713    0.11387732710118684
235.0791    0.0040863332377104825
235.0917    0.018274232157578056
236.0869    0.008798778932476613
238.066     0.013192782452380966
240.0804    0.0053848654746894
241.0885    0.008184670055334265
242.0963    0.026405389609171315
245.076     0.004110066490344432
246.0714    0.010379286987711197
246.084     0.003415364002250264
247.0791    0.06771638793536564
250.1025    0.01549133508022867
260.0866    0.007507822556690553
261.0947    0.007353593562113988
262.1026    0.2289753493551974
280.1131    0.016331760222860918
307.1605    0.01965027207398373
325.171     1.0


