PRECURSORMZ: 193.087018308
COMPOUNDNAME: Training-035
FORMULA: C11H14O3
SMILES: CCCCOC(=O)c1ccc(O)cc1
INCHIKEY: QFOHBWFCKVYLES-UHFFFAOYSA-N
PRECURSORTYPE: [M-H]-
IONMODE: negative
CHARGE: -1
PARENTMASS: 194.094294308
NUM PEAKS: 3
136.0164    0.2197158276918568
137.0243    0.21198583187596526
193.087     1.0


