PRECURSORMZ: 327.07807159000004
COMPOUNDNAME: Training-287
FORMULA: C18H15O4P
SMILES: O=P(OC1=CC=CC=C1)(OC1=CC=CC=C1)OC1=CC=CC=C1
INCHIKEY: XZZNDPSIHUTMOC-UHFFFAOYSA-N
PRECURSORTYPE: [M+H]+
IONMODE: positive
CHARGE: 1
PARENTMASS: 326.07079559000005
NUM PEAKS: 44
51.0232     0.0032991911073157205
53.0388     0.013414492025359407
65.0387     0.00197308936775163
77.0386     0.03434896720085155
81.0335     0.0022719484714614313
93.0335     0.0024304410458714995
94.0413     0.0070166944692455656
95.0492     0.07646315260837792
98.9842     0.002421874231947241
105.0447    0.02287364221305847
109.0648    0.00171677712847994
111.044     0.001401283398471655
121.0284    0.0014598052948086263
138.9941    0.001586864495458788
141.0698    0.0019626364024460906
143.0855    0.001110908252085454
151.0542    0.004936956553796984
152.0621    0.12906270118327418
153.0699    0.13520520545010983
157.0049    0.002035355172173409
168.057     0.03626176303056899
169.0648    0.012443872100838234
170.0726    0.0021844723825730186
171.0804    0.019284229104421808
175.0155    0.011565538602908865
179.0603    0.003955096991750536
181.0759    0.00177420373503405
187.0308    0.00693306143707084
202.0777    0.0052606903261921
203.0856    0.0015918098242531438
215.0256    0.03482517387597294
216.0341    0.002009433158816851
226.078     0.0013347327906281848
227.0855    0.009042613298674325
228.0934    0.04796912141169475
229.1013    0.026579445571294213
233.0363    0.1862785819895296
244.0887    0.001605967596775765
247.052     0.009339736603148983
251.0468    0.1000363023627649
291.0571    0.002442404049449713
309.0675    0.007770540579550827
326.071     0.0010626414892827873
327.0782    1.0


