PRECURSORMZ: 304.263490676
COMPOUNDNAME: Training-202
FORMULA: C20H33NO
SMILES: CC(CN1C[C@H](C)O[C@H](C)C1)Cc1ccc(cc1)C(C)(C)C
INCHIKEY: RYAUSSKQMZRMAI-ALOPSCKCSA-N
PRECURSORTYPE: [M+H]+
IONMODE: positive
CHARGE: 1
PARENTMASS: 303.256214676
NUM PEAKS: 25
56.0497     0.0012337370952838552
57.0701     0.029144594035609615
58.0653     0.0015365603401614862
59.0493     0.0024027870235140063
70.0652     0.0036622018266698267
72.0809     0.004774327988781414
81.0698     0.0012293395098209392
86.0964     0.0010529962971182803
88.0758     0.0027220212917979823
91.0542     0.005101275762387855
98.0965     0.04511782620839191
100.1121    0.0013108828404255052
102.0913    0.004190231414140884
105.0699    0.01287040756504164
107.0855    0.0017399854658357043
112.1122    0.002025570132931036
116.107     0.04398057689250352
119.0855    0.015789454157393686
130.1227    0.06244818697020838
132.0934    0.007885866152481448
147.1168    0.14687455022669144
161.1326    0.0048423863172658435
189.1638    0.005770033430630728
248.2008    0.0014221411467619856
304.2637    1.0


