PRECURSORMZ: 308.15241600400003
COMPOUNDNAME: Training-277
FORMULA: C16H22ClN3O
SMILES: CC(C)(C)C(O)(CCc1ccc(Cl)cc1)Cn1cncn1
INCHIKEY: PXMNMQRDXWABCY-UHFFFAOYSA-N
PRECURSORTYPE: [M+H]+
IONMODE: positive
CHARGE: 1
PARENTMASS: 307.14514000400004
NUM PEAKS: 28
57.0701     0.007786321783458069
59.0493     0.011088760823705605
67.0292     0.010630329309378616
69.0698     0.0017104329533233831
70.04       1.0
71.0856     0.0011971989797505366
78.9944     0.0010961645544898778
83.0855     0.006895170871898216
95.0604     0.01361299448928631
108.0556    0.04027069908606901
109.059     0.0022923079982601503
109.076     0.0034362301379488643
115.0542    0.004587324313174976
116.0621    0.00524553290289222
123.0917    0.001804772756361389
125.0152    0.05626098560544677
130.0778    0.002199526321854847
136.0869    0.011390719008673243
139.0308    0.009614729685904107
151.0309    0.029967654451174833
164.1182    0.039472574294180426
165.0466    0.00767537896036335
165.1215    0.0023765475457768618
168.1128    0.0010570609620471074
179.0615    0.0013122791724393948
196.1439    0.0012463355819139264
207.0895    0.0020044599582170926
308.1523    0.6443347548224482


