PRECURSORMZ: 232.05236761999998
COMPOUNDNAME: Training-284
FORMULA: C13H10ClNO
SMILES: ClC1=CC=CC=C1NC1=CC=CC=C1C=O
INCHIKEY: DAAHPDZFLSFYPJ-UHFFFAOYSA-N
PRECURSORTYPE: [M+H]+
IONMODE: positive
CHARGE: 1
PARENTMASS: 231.04509162
NUM PEAKS: 9
168.0814    0.0012790647931623389
178.0651    0.009425186358514897
179.0728    0.008260662080793187
180.0807    0.03452378131604112
196.0758    0.006339293382076153
197.0843    0.00410873792986399
213.0348    0.0011806762246022295
214.0417    1.0
232.0523    0.04679620799676296


