PRECURSORMZ: 358.1419876439999
COMPOUNDNAME: Training-019
FORMULA: C15H22FN3O6
SMILES: CCCCCOC(=O)NC1=NC(=O)N(C=C1F)[C@@H]1O[C@H](C)[C@@H](O)[C@H]1O
INCHIKEY: GAGWJHPBXLXJQN-UORFTKCHSA-N
PRECURSORTYPE: [M-H]-
IONMODE: negative
CHARGE: -1
PARENTMASS: 359.1492636439999
NUM PEAKS: 24
85.0643     0.002349454069115198
106.0161    0.0047409049917576706
107.024     0.010855218057330501
113.0146    0.0020895174311391716
125.0152    0.02481856061567801
127.0308    0.0011111393221636373
129.0103    0.009086723596570664
133.0044    0.0011879674218765429
135.02      0.0013707750422460511
136.0151    0.001987167732574268
148.0151    0.0017102104262407924
150.0069    0.0038882729475754013
153.0105    0.07422126680791
154.0058    0.5259652082492879
155.0826    0.015364942877320476
164.0095    0.0010145070635773684
168.0216    0.001105290230606547
176.0101    0.003609021142303132
196.0163    0.005664083474623688
199.0887    0.019319587027805753
221.0932    0.01096428198639663
242.0946    0.019852155277394576
284.105     0.014401102864080091
358.142     1.0


