PRECURSORMZ: 230.175069596
COMPOUNDNAME: Training-232
FORMULA: C12H23NO3
SMILES: CCC(C)OC(=O)N1CCCCC1CCO
INCHIKEY: QLHULAHOXSSASE-UHFFFAOYSA-N
PRECURSORTYPE: [M+H]+
IONMODE: positive
CHARGE: 1
PARENTMASS: 229.167793596
NUM PEAKS: 19
56.0497     0.0030129410068940026
57.0337     0.0012411403321211537
57.0701     0.0035358070969904666
67.0543     0.01748155564102096
69.07       0.004902961026842579
70.0652     0.0072097875430875156
71.0492     0.03186783787792813
83.0855     0.0012157702676870716
84.0808     0.01782409991167648
93.0699     0.004070172572265768
95.0856     0.0506266571696565
112.1122    0.06353064952662596
113.0962    0.01939746376337067
128.0707    0.029048313347476085
130.1227    1.0
156.102     0.06997102261623622
174.1126    0.04881891850190833
186.1853    0.004846861400871051
230.1753    0.034250504416764575


