PRECURSORMZ: 222.031632176
COMPOUNDNAME: Training-127
FORMULA: C11H8ClNO2
SMILES: CC1=CC2=C(N=C1)C(C(O)=O)=C(Cl)C=C2
INCHIKEY: ALZOLUNSQWINIR-UHFFFAOYSA-N
PRECURSORTYPE: [M+H]+
IONMODE: positive
CHARGE: 1
PARENTMASS: 221.024356176
NUM PEAKS: 7
140.0493    0.00835583235262924
141.0571    0.01664152188752949
149.0152    0.011179776089674926
176.0261    0.03520878507528127
194.0368    0.020617183220429356
204.021     1.0
222.0316    0.2986263779818841


