PRECURSORMZ: 274.252925992
COMPOUNDNAME: Training-186
FORMULA: C19H31N
SMILES: CC(CN1CCCCC1)CC1=CC=C(C=C1)C(C)(C)C
INCHIKEY: MGNFYQILYYYUBS-UHFFFAOYSA-N
PRECURSORTYPE: [M+H]+
IONMODE: positive
CHARGE: 1
PARENTMASS: 273.245649992
NUM PEAKS: 15
57.0701     0.02578534568755213
69.07       0.003063657346244574
84.0807     0.002393963615839456
85.089      0.0012523639341304375
86.0964     0.09572373077758868
91.0542     0.0035611532169344327
105.0699    0.008320039753929677
119.0855    0.009396547507405898
132.0932    0.0050776679657808495
147.1168    0.13243906748528725
161.1325    0.004379539605159713
189.1637    0.00462882590161492
218.1902    0.0027988179947206473
259.2295    0.0010353329014148338
274.2529    1.0


