PRECURSORMZ: 231.08044094
COMPOUNDNAME: Training-279
FORMULA: C17H10O
SMILES: O=C1c2ccccc2-c2cccc3cccc1c23
INCHIKEY: HUKPVYBUJRAUAG-UHFFFAOYSA-N
PRECURSORTYPE: [M+H]+
IONMODE: positive
CHARGE: 1
PARENTMASS: 230.07316494
NUM PEAKS: 4
202.0777    0.021692736584160318
203.0856    0.024213965394483627
230.0722    0.0017946521280869916
231.0805    1.0


