PRECURSORMZ: 430.25879921999996
COMPOUNDNAME: Training-172
FORMULA: C25H35NO5
SMILES: CCN(CCCCOC(=O)C1=CC(OC)=C(OC)C=C1)C(C)CC1=CC=C(OC)C=C1
INCHIKEY: VYVKHNNGDFVQGA-UHFFFAOYSA-N
PRECURSORTYPE: [M+H]+
IONMODE: positive
CHARGE: 1
PARENTMASS: 429.25152321999997
NUM PEAKS: 21
65.0387     0.0011804619933223441
77.0387     0.0010126974019785285
78.0465     0.0030048169643214205
91.0542     0.039177297608226816
93.0698     0.01928773164554088
94.0412     0.0023271569251719143
95.0491     0.0012714160135513946
100.1121    0.03321381049190758
106.0411    0.002041964295619791
107.0491    0.003299063513713292
108.0571    0.004064094141351543
109.0647    0.018067204071507317
115.0541    0.002598727354033671
117.0699    0.006946928089938081
119.0604    0.003065526885163256
121.0648    1.0
134.0727    0.0062999817978276595
149.0961    0.8816918783738842
165.0546    0.02787116532087553
248.2007    0.0013436562881603833
430.259     0.7672669728484478


