PRECURSORMZ: 266.09577372
COMPOUNDNAME: Training-194
FORMULA: C12H15N3O2S
SMILES: CCCSc1ccc2nc(NC(=O)OC)[nH]c2c1
INCHIKEY: HXHWSAZORRCQMX-UHFFFAOYSA-N
PRECURSORTYPE: [M+H]+
IONMODE: positive
CHARGE: 1
PARENTMASS: 265.08849772
NUM PEAKS: 11
159.0426    0.03329452126338983
160.0503    0.0022474499829281814
164.0279    0.002247042512133603
179.0512    0.0011172143582689695
190.0067    0.002156288404599149
191.0146    0.15218847287625203
192.0224    0.1500568221519279
205.0306    0.0015310362303960145
223.0406    0.005646538931628612
234.0694    1.0
266.0957    0.7214953773868634


