PRECURSORMZ: 195.08765155999998
COMPOUNDNAME: Training-117
FORMULA: C8H10N4O2
SMILES: CN1c2ncn(C)c2C(=O)N(C)C1=O
INCHIKEY: RYYVLZVUVIJVGH-UHFFFAOYSA-N
PRECURSORTYPE: [M+H]+
IONMODE: positive
CHARGE: 1
PARENTMASS: 194.08037556
NUM PEAKS: 12
56.0496     0.001549499069716301
69.0448     0.013083693732927731
83.0603     0.008524093593223482
109.0397    0.0031257774821758506
110.0712    0.05155244191386198
111.0553    0.0028718305137365066
123.0426    0.003004641177827556
138.0661    0.396491412931698
151.0977    0.0011911377272619476
156.0766    0.0010515655284076086
180.064     0.0012811585751028919
195.0876    1.0


