PRECURSORMZ: 204.11313803599998
COMPOUNDNAME: Training-089
FORMULA: C11H13N3O
SMILES: CN1N(C(=O)C(N)=C1C)c1ccccc1
INCHIKEY: RLFWWDJHLFCNIJ-UHFFFAOYSA-N
PRECURSORTYPE: [M+H]+
IONMODE: positive
CHARGE: 1
PARENTMASS: 203.105862036
NUM PEAKS: 44
56.0497     1.0
58.0653     0.03176277181690074
68.0496     0.013772167232097855
77.0386     0.00236083908495949
83.0604     0.23760501117046778
84.0682     0.0018400464042831993
85.0761     0.13752510254301845
94.0652     0.2088267267534367
95.0491     0.004891408370398472
104.0495    0.03975630188035367
106.0653    0.0014806743949321553
109.0648    0.004449006617975247
111.0553    0.06903388412200244
118.0652    0.021021228023362686
120.0444    0.0031281646045117923
123.0806    0.0010883415894152734
128.0494    0.005229759489552885
130.0652    0.011396942779009081
131.0604    0.0015038533424576806
132.0444    0.005075347462356522
132.0809    0.006197829720402496
134.06      0.001203358985979283
141.091     0.00118258516309367
142.0652    0.00351426526316299
144.0806    0.0013477622659843979
145.0761    0.03264090954653972
146.0601    0.08309430327320824
147.0919    0.001147743630050081
158.0601    0.025080266622940797
159.0917    0.24805154651027003
160.076     0.0028473247047343946
161.0712    0.0012131509189996375
161.0949    0.001359001307540716
163.0863    0.0012481235489837667
170.0601    0.0028368016541610273
172.0631    0.004061115981866671
173.0711    0.06244527459060946
176.1182    0.009624033134852565
177.1024    0.003606764239094197
185.071     0.0037361619615974705
187.0867    0.20853121408069883
188.082     0.001806132634203434
189.0898    0.05116714597725004
204.1133    0.7117942673526465


