PRECURSORMZ: 309.11213499199994
COMPOUNDNAME: Training-250
FORMULA: C19H16O4
SMILES: CC(=O)CC(C1=CC=CC=C1)C1=C(O)C2=CC=CC=C2OC1=O
INCHIKEY: PJVWKTKQMONHTI-UHFFFAOYSA-N
PRECURSORTYPE: [M+H]+
IONMODE: positive
CHARGE: 1
PARENTMASS: 308.10485899199995
NUM PEAKS: 30
68.9973     0.002185720872856924
77.0389     0.0019717834368443155
91.0543     0.004418513226083369
95.0492     0.010184191139723167
105.07      0.0023147548293127964
121.0285    0.05569065147545825
129.07      0.03305652937733403
131.0491    0.01728714127470083
147.0805    0.17151762566002904
155.0856    0.03536241492170555
157.0288    0.0029289052515627423
163.0391    1.0
167.0857    0.01186544250996342
171.0803    0.008997007786049607
173.0235    0.01404890621407297
175.0393    0.009085649219317827
178.0778    0.0028006065459744655
179.0856    0.0038399890504178485
183.0807    0.06469460044102712
189.0547    0.009866238843210785
191.034     0.11767008871958581
194.0084    0.0020009620988975145
195.0807    0.002448118025142906
205.0498    0.003986848984202081
205.065     0.009363964809967986
223.0756    0.03422260640365458
233.0598    0.01717963011636913
251.0705    0.676389562440383
291.1023    0.015629644163259834
309.1124    0.4555614889786409


