PRECURSORMZ: 278.211455104
COMPOUNDNAME: Training-140
FORMULA: C17H27NO2
SMILES: COC1=CC=C(C=C1)C(CN(C)C)C1(O)CCCCC1
INCHIKEY: PNVNVHUZROJLTJ-UHFFFAOYSA-N
PRECURSORTYPE: [M+H]+
IONMODE: positive
CHARGE: 1
PARENTMASS: 277.204179104
NUM PEAKS: 14
58.0653     1.0
79.0544     0.004005040683952654
81.0699     0.009566079061898462
107.0859    0.005365986857661081
121.0649    0.1347659361281313
135.0806    0.004283664067645051
147.0805    0.05963211999884356
152.1434    0.003520190377425572
159.0804    0.010502949626494213
173.0964    0.02707178818152654
215.1433    0.04452162847851296
222.0779    0.0028703708177929446
260.2013    0.24164150324193145
278.2118    0.400444690111288


