PRECURSORMZ: 198.091339972
COMPOUNDNAME: Training-197
FORMULA: C13H11NO
SMILES: O=C(NC1=CC=CC=C1)C1=CC=CC=C1
INCHIKEY: ZVSKZLHKADLHSD-UHFFFAOYSA-N
PRECURSORTYPE: [M+H]+
IONMODE: positive
CHARGE: 1
PARENTMASS: 197.084063972
NUM PEAKS: 12
53.0388     0.0010093956891110759
77.0384     0.015841118831707877
79.0542     0.004626165042363434
81.0335     0.0014411187038682102
92.0494     0.0218713929944013
94.0412     0.0012613582723957988
95.0491     0.02489943530211183
104.0495    0.0019666600540972352
105.0334    1.0
120.0443    0.11094245883957528
180.0805    0.004406634254548479
198.0912    0.9578443434745032


