PRECURSORMZ: 284.02395995200004
COMPOUNDNAME: Training-257
FORMULA: C13H11Cl2NO2
SMILES: CC12CC1(C)C(=O)N(C2=O)c1cc(Cl)cc(Cl)c1
INCHIKEY: QXJKBPAVAHBARF-UHFFFAOYSA-N
PRECURSORTYPE: [M+H]+
IONMODE: positive
CHARGE: 1
PARENTMASS: 283.01668395200005
NUM PEAKS: 52
60.0809     0.011866555521471362
65.0387     0.013379271022527079
67.0544     0.15007814663020447
69.0336     0.009867212379113722
69.07       0.026982052990252876
95.0492     0.1371197427569115
96.057      0.004551821696403984
113.0596    0.011571754224644567
127.0181    0.0022736690132451345
132.9607    0.0024506245191731066
134.0967    0.002854528450566979
146.0964    0.003055546318365224
151.0185    0.0033710472246270056
157.029     0.0029299288329492947
157.0889    0.009698850573853703
158.0966    0.003935690722427578
159.9716    0.05017039813867916
161.9871    0.004133046926462956
165.0342    0.003965507127353786
171.9716    0.023862464919953415
172.9668    0.00423400422735345
173.9876    0.004657262667208195
177.0468    0.004449743478035062
178.0419    0.02389549462165112
179.0133    0.008347323006196058
179.0497    0.0051133266252649575
180.021     0.03588505215442207
185.9873    0.06873465977725875
187.9665    0.039633474930120136
188.0023    0.0027899636038094754
192.0574    0.03664241873068052
193.0655    0.021921932581297342
197.9872    0.018128150011638863
199.9664    0.012284284101765857
200.0028    0.0031322170738897594
202.042     0.003614585228773653
203.0497    0.0141952989468233
206.0373    0.0021484998948205765
212.003     0.033433904540425705
213.0117    0.002715534683241798
213.0227    0.0042649415497580875
213.9822    0.05225821903400078
214.0187    0.00954222103820124
214.9901    0.0026179401347865903
220.0525    0.016709068483947903
221.0601    0.014120720570591834
227.9978    0.004238114258107689
228.0341    0.06633425236111926
238.0186    0.02548652489053307
241.0052    0.008815492873019852
256.0291    0.37270139991383877
284.0242    1.0


