PRECURSORMZ: 239.049587244
COMPOUNDNAME: Training-017
FORMULA: C10H12N2O3S
SMILES: CC(C)N1C(=O)c2ccccc2NS1(=O)=O
INCHIKEY: ZOMSMJKLGFBRBS-UHFFFAOYSA-N
PRECURSORTYPE: [M-H]-
IONMODE: negative
CHARGE: -1
PARENTMASS: 240.056863244
NUM PEAKS: 10
105.0334    0.003985192323537286
132.0327    0.23803051906094705
133.0405    0.12034283388867421
145.0659    0.002206626979136544
147.0814    0.009203234564897512
159.0567    0.0014526316173874383
175.0876    0.131113923129014
195.9947    0.02110780749410062
197.0026    0.15123947167031124
239.0495    1.0


