PRECURSORMZ: 170.09642535199998
COMPOUNDNAME: Training-168
FORMULA: C12H11N
SMILES: NC1=C(C=CC=C1)C1=CC=CC=C1
INCHIKEY: TWBPWBPGNQWFSJ-UHFFFAOYSA-N
PRECURSORTYPE: [M+H]+
IONMODE: positive
CHARGE: 1
PARENTMASS: 169.089149352
NUM PEAKS: 19
65.0386     0.0012415753699988273
92.0494     0.007411463234085044
93.0572     0.006517377272866992
103.0542    0.001081701285091807
110.06      0.003944636967980736
115.0541    0.0012329801695908158
128.062     0.009873945951357982
129.0699    0.0027074578194025527
143.0855    0.018980948040952714
152.062     0.0190102592923848
153.0698    0.0748209747472984
154.0649    0.0015993875990819152
154.0777    0.0012143465883232777
155.0729    0.007714643039503845
168.0809    0.0026930777735400964
169.0654    0.0012262762583302523
169.0885    0.014703985084256745
170.0963    1.0
181.0758    0.001747199120143938


