PRECURSORMZ: 177.10223900399998
COMPOUNDNAME: Training-071
FORMULA: C10H12N2O
SMILES: CN1C(c2cccnc2)CCC1=O
INCHIKEY: UIKROCXWUNQSPJ-UHFFFAOYSA-N
PRECURSORTYPE: [M+H]+
IONMODE: positive
CHARGE: 1
PARENTMASS: 176.094963004
NUM PEAKS: 10
70.0652     0.004473625492288777
80.0495     0.2677493627687626
98.0601     0.10545109329966244
106.0653    0.0010602398575554472
118.0652    0.009541508291672128
120.0808    0.005555742189185427
146.0601    0.030568487619546152
149.071     0.005613252978291126
159.0919    0.001979748912711057
177.1023    1.0


