PRECURSORMZ: 95.060374192
COMPOUNDNAME: Training-081
FORMULA: C5H6N2
SMILES: CC1=CC=CN=N1
INCHIKEY: MXDRPNGTQDRKQM-UHFFFAOYSA-N
PRECURSORTYPE: [M+H]+
IONMODE: positive
CHARGE: 1
PARENTMASS: 94.053098192
NUM PEAKS: 6
65.0386     0.0023430616381353185
67.0417     0.006826125220294304
67.0543     0.0018598822733024846
68.0495     0.01780850881984142
78.0339     0.002682701765004702
95.0603     1.0


