PRECURSORMZ: 279.09332773
COMPOUNDNAME: Training-245
FORMULA: C18H15OP
SMILES: O=P(C1=CC=CC=C1)(C1=CC=CC=C1)C1=CC=CC=C1
INCHIKEY: FIQMHBFVRAXMOP-UHFFFAOYSA-N
PRECURSORTYPE: [M+H]+
IONMODE: positive
CHARGE: 1
PARENTMASS: 278.08605173
NUM PEAKS: 15
77.039      0.0031586906480997093
95.0045     0.0020017961190683243
95.0491     0.0021332515957165916
128.0621    0.0016658516411918079
129.0697    0.0023526222616568706
141.0098    0.0026190252993405143
154.0774    0.0015144977894941992
171.0357    0.0038755818320243534
173.0515    0.027098194934053337
183.0357    0.004095788537206287
201.0463    0.21490323884594006
219.0569    0.2572300464667809
233.0725    0.040292128874558686
278.0856    0.0011417585621245779
279.0933    1.0


