PRECURSORMZ: 201.069224624
COMPOUNDNAME: Training-115
FORMULA: C8H12N2O2S
SMILES: CN(C)S(=O)(=O)C1=CC=C(N)C=C1
INCHIKEY: BABGMPQXLCJMSK-UHFFFAOYSA-N
PRECURSORTYPE: [M+H]+
IONMODE: positive
CHARGE: 1
PARENTMASS: 200.061948624
NUM PEAKS: 18
53.0388     0.0011567842316962318
55.0181     0.0011850324198017877
65.0387     0.029272252801486057
68.0496     0.030061249187595913
69.0336     0.0013456763133229744
78.0339     0.003279653385568536
79.0178     0.00457790198659314
80.0495     0.0035183616050898777
92.0495     0.3328052023275059
95.0366     0.0012695577976368586
96.0443     0.004236276522271327
108.0444    0.3722935560305696
110.0601    0.03341988889649364
120.0556    0.006243782881507505
130.982     0.0012767160038938833
144.9975    0.0011593734603917302
156.0113    1.0
201.0692    0.055767411467044815


