PRECURSORMZ: 343.039944364
COMPOUNDNAME: Training-252
FORMULA: C18H12Cl2N2O
SMILES: Clc1ccc(cc1)-c1ccccc1NC(=O)c1cccnc1Cl
INCHIKEY: WYEMLYFITZORAB-UHFFFAOYSA-N
PRECURSORTYPE: [M+H]+
IONMODE: positive
CHARGE: 1
PARENTMASS: 342.032668364
NUM PEAKS: 32
76.0183     0.0017763750738763492
78.0339     0.008748087080084585
94.0287     0.0023177566908189583
96.0444     0.039844412101563975
110.0603    0.0015631336605740368
111.9949    0.0072400694830940205
112.0393    0.04360842239069484
114.0105    0.016254808048832923
130.0054    0.012814567180099492
139.9897    0.327153874791105
152.0622    0.002303307263440252
227.073     0.001030164022349047
228.0807    0.0025834999374532304
229.0889    0.0038271525639306638
230.0367    0.0021542043788731246
238.0418    0.0025614924633015255
242.0834    0.0034966734107315274
243.0916    0.023837113230626795
244.0761    0.0010571134403644642
244.0997    0.009682048927304175
253.076     0.014962046844908731
254.0838    0.022750284456715765
264.0569    0.0035951864455532243
270.0784    0.006680135445591427
271.0866    0.2938510907482466
272.0944    0.29210466883545405
279.0683    0.002756909919917663
289.0527    0.05141699893857757
305.0482    0.001847056668871409
306.0558    0.0031171793129742974
307.0633    1.0
343.0401    0.8523680506606363


