PRECURSORMZ: 329.024498196
COMPOUNDNAME: Training-192
FORMULA: C14H13ClO5S
SMILES: CS(=O)(=O)c1ccc(C(=O)C2C(=O)CCCC2=O)c(Cl)c1
INCHIKEY: PQTBTIFWAXVEPB-UHFFFAOYSA-N
PRECURSORTYPE: [M+H]+
IONMODE: positive
CHARGE: 1
PARENTMASS: 328.01722219600003
NUM PEAKS: 27
55.018      0.01087809370687736
68.9972     0.46237864187740674
78.9848     0.012134104107756852
83.0491     0.0027775955413515277
87.0441     0.0016577636194351167
97.0284     0.02031067800314965
98.9841     0.007038229439926828
111.044     0.5761437536021087
139.0389    0.3619054385429739
157.0495    0.7754692201668305
159.0538    0.001853903761228829
171.0651    0.06552322295046249
178.9899    0.0029253430940842833
190.9927    0.021830519720483922
202.0623    0.009139417114187262
214.0624    0.02697933197064156
215.0697    0.0040960870026595765
230.0574    0.006400338123312822
231.0648    0.0020138149655643694
240.972     0.01191027074756674
246.0524    0.015581577237625651
249.0312    0.016288953539990447
250.0388    0.003377756359538999
283.0189    0.00484320932152925
293.0478    0.09179078478932848
311.0136    0.0024029308857687996
329.0245    1.0


