PRECURSORMZ: 327.008104726
COMPOUNDNAME: Training-253
FORMULA: C9H18Cl3O4P
SMILES: CC(CCl)OP(=O)(OC(C)CCl)OC(C)CCl
INCHIKEY: KVMPUXDNESXNOH-UHFFFAOYSA-N
PRECURSORTYPE: [M+H]+
IONMODE: positive
CHARGE: 1
PARENTMASS: 326.000828726
NUM PEAKS: 9
77.0153     0.004322856978452233
80.9735     0.002472137029786792
98.9842     1.0
116.9947    0.0028447799140225724
131.0103    0.004272143556792872
139.0155    0.0016066143210471306
174.9922    0.19282813260519593
251.0002    0.14244089864860368
327.0083    0.029114003305128963


