PRECURSORMZ: 130.10872135199998
COMPOUNDNAME: Training-061
FORMULA: C4H11N5
SMILES: CN(C)C(=N)N=C(N)N
INCHIKEY: XZWYZXLIPXDOLR-UHFFFAOYSA-N
PRECURSORTYPE: [M+H]+
IONMODE: positive
CHARGE: 1
PARENTMASS: 129.10144535199998
NUM PEAKS: 7
60.0558     1.0
68.0244     0.006807878425365187
71.0604     0.3716029132548379
85.0509     0.21983671235566887
88.0869     0.2122212252465379
113.0822    0.10636093237186249
130.1087    0.771248814754501


