PRECURSORMZ: 122.096425352
COMPOUNDNAME: Training-080
FORMULA: C8H11N
SMILES: CC1=CC(C)=NC(C)=C1
INCHIKEY: BWZVCCNYKMEVEX-UHFFFAOYSA-N
PRECURSORTYPE: [M+H]+
IONMODE: positive
CHARGE: 1
PARENTMASS: 121.08914935199999
NUM PEAKS: 7
79.0542     0.003286449349470471
81.0699     0.0023335497318919206
106.065     0.0013544149787985467
107.0728    0.0027468954208174183
121.0887    0.001925807033178451
122.0964    1.0
124.0756    0.0013962224918773003


