PRECURSORMZ: 171.18557470399998
COMPOUNDNAME: Training-059
FORMULA: C10H22N2
SMILES: CC1(CC(CC(C1)(C)CN)N)C
INCHIKEY: RNLHGQLZWXBQNY-UHFFFAOYSA-N
PRECURSORTYPE: [M+H]+
IONMODE: positive
CHARGE: 1
PARENTMASS: 170.17829870399999
NUM PEAKS: 12
57.07       0.0069105021955304215
67.0543     0.009322963650293559
69.0699     0.010795855912535318
71.0856     0.01444143601485082
79.0542     0.0017269422275513256
81.0699     0.11179961409412506
83.0856     0.0013938250468959116
95.0855     0.11196823725792841
109.1012    0.005282588809412686
137.1324    0.23929128833416047
154.159     1.0
171.1855    0.5695330430295744


