PRECURSORMZ: 253.03092096799998
COMPOUNDNAME: Training-158
FORMULA: C10H9ClN4S
SMILES: Clc1ccc(CN2CCSC2=NC#N)cn1
INCHIKEY: HOKKPVIRMVDYPB-UHFFFAOYSA-N
PRECURSORTYPE: [M+H]+
IONMODE: positive
CHARGE: 1
PARENTMASS: 252.02364496799999
NUM PEAKS: 20
63.0232     0.0014897819101617447
72.9839     0.0024488071736709924
81.0336     0.0015565612101619268
90.0338     0.02526310577859338
91.0416     0.0031339226032007094
98.9995     0.010784435411669758
126.0105    1.0
128.0261    0.0013534262558664873
144.021     0.008494618249712928
151.0056    0.00529181979342551
157.051     0.0019422215316110898
186.0139    0.06207275366935899
190.0432    0.0021257681948728424
193.0276    0.0019152782254164768
194.0478    0.0013330943939388299
211.0091    0.008367765649266303
217.0543    0.008166077242342487
226.02      0.010854838010853006
236.0044    0.004198531468276672
253.0309    0.4970164094115996


