PRECURSORMZ: 228.12774254399997
COMPOUNDNAME: Training-177
FORMULA: C9H17N5S
SMILES: CCNc1nc(NC(C)C)nc(SC)n1
INCHIKEY: RQVYBGPQFYCBGX-UHFFFAOYSA-N
PRECURSORTYPE: [M+H]+
IONMODE: positive
CHARGE: 1
PARENTMASS: 227.12046654399998
NUM PEAKS: 21
68.0244     0.03024761032423329
71.0604     0.04242255726931494
74.0059     0.009484886486950204
85.0509     0.005773070236536923
85.076      0.003240337842726697
91.0324     0.07623921925377655
96.0556     0.0984161627630619
102.0372    0.00503194028874138
110.0461    0.002647463242698809
110.0712    0.001723212499204753
113.0821    0.011691582068327615
116.0277    0.04289783061174843
138.0774    0.037118965991945675
138.1025    0.017092687665497888
144.059     0.02744839012357725
158.0495    0.03464581247698729
158.0748    0.0020810770863323343
180.1244    0.002749128658671455
186.0808    0.5523820900176651
200.0967    0.0013664165251154631
228.1278    1.0


