PRECURSORMZ: 388.105859736
COMPOUNDNAME: Training-288
FORMULA: C19H18ClN3O4
SMILES: CON(C(=O)OC)C1=C(COC2=NN(C=C2)C2=CC=C(Cl)C=C2)C=CC=C1
INCHIKEY: HZRSNVGNWUDEFX-UHFFFAOYSA-N
PRECURSORTYPE: [M+H]+
IONMODE: positive
CHARGE: 1
PARENTMASS: 387.098583736
NUM PEAKS: 93
65.0388     0.0013219214734929965
75.0441     0.008653704724801075
77.0386     0.0019854255006103443
78.0339     0.0013554517981424314
78.0465     0.00144268710960154
79.0543     0.005743685886382772
89.0384     0.0014285092821967236
91.0417     0.00148589820026293
91.0542     0.02824086793872143
94.0414     0.004401343552993814
95.0491     0.0017648763739527675
98.9996     0.00118263566918216
104.0495    0.04600865586064901
105.0573    0.135646312874949
106.0651    0.027790879462582418
107.049     0.0018301391021724215
107.073     0.010542505519572538
108.0443    0.0010080475941331396
109.0647    0.009575065870317126
116.0495    0.010130798532643426
117.0574    0.009747898939488572
118.0652    0.044207753304267246
119.0366    0.07279631681863015
119.073     0.0036809576847980532
120.0444    0.059208776718891604
121.0649    0.01850734107439246
123.0679    0.015833659639445448
126.0105    0.005763525132361775
128.0495    0.007311765568438047
129.0101    0.0018630448977032597
129.0572    0.0018763553862959927
130.0287    0.011225043567964443
130.0652    0.0012296040986818346
132.0444    0.13615146997214306
133.0522    0.3262857462172057
134.0235    0.007068759368501453
134.0601    0.08769072080282327
135.0679    0.004946318051877522
137.0597    0.0019920400883998947
137.0835    0.0010652874383410193
138.0105    0.0034778908560715387
139.0058    0.006077358355214816
144.0447    0.00138645577263219
144.0809    0.0018270300087483767
146.0601    0.026891148708040113
147.0316    0.0012113504564686716
148.0393    0.009036127733348246
149.0472    0.36127988580761755
151.0184    0.0013019941384158906
151.063     0.008193344322034227
156.0444    0.0035379902079255075
159.0554    0.004048436039047955
162.055     0.18299524210452897
163.0628    0.8454462769888056
164.0706    0.43506017479226106
166.0862    0.011818180216561853
174.055     0.010381310375477296
179.0009    0.0010731770593582289
179.0577    0.011649381176344526
180.021     0.0014974762699263187
181.0158    0.001013439098675962
185.0711    0.0011093387634766156
188.0707    0.0021552307893713775
191.0815    0.004816509731044558
193.0162    0.003656929689269546
194.0813    1.0
196.0973    0.0014147097861747818
204.0807    0.0019166154921709572
207.0314    0.0010076850736140265
216.0652    0.007106468278573687
218.0837    0.010250201046426207
219.0912    0.0016179177833277423
232.0755    0.0020447919059942057
233.0947    0.004831812388471296
234.0795    0.0017380859946555666
241.0526    0.0021956422277994918
243.0795    0.010023928387086807
253.0528    0.019495684944235987
261.0899    0.019618476629600885
267.056     0.0019174331396969318
268.0637    0.004978592542205294
280.0635    0.005646311293862611
281.048     0.006367287810754622
288.0768    0.0014151671718764668
296.0587    0.26811003439630826
298.0745    0.004667910198630526
299.0577    0.001056778934942271
300.0645    0.001028795964778455
324.0537    0.04727242497722558
328.0846    0.0052398817473877516
356.0799    0.05582182430444171
357.087     0.005915933953595024
388.1061    0.08729585012710579


