PRECURSORMZ: 316.10760645
COMPOUNDNAME: Training-274
FORMULA: C16H15F2N3Si
SMILES: C[Si](Cn1cncn1)(c1ccc(F)cc1)c1ccc(F)cc1
INCHIKEY: FQKUGOMFVDPBIZ-UHFFFAOYSA-N
PRECURSORTYPE: [M+H]+
IONMODE: positive
CHARGE: 1
PARENTMASS: 315.10033045
NUM PEAKS: 65
53.0388     0.009109948091898355
61.0106     0.0048816798436247515
77.0386     0.032954777089017465
79.001      0.005396770575861895
79.0543     0.012352817004878357
81.0335     0.0018761063716218353
91.0542     0.027118932973268537
94.0413     0.00413227080741183
95.0491     0.04048487393082516
103.0542    0.007445048737076445
105.0447    0.014940346832043535
105.0699    0.027439548263747462
109.0315    0.005538389630654608
109.0447    0.009877615630829433
115.0542    0.006720467154316407
128.0622    0.0038730604205839524
129.0697    0.001436227521522985
139.0541    0.001529938058067888
141.0167    0.002725458961726377
141.0698    0.012931658130006454
151.0373    0.004332368076982449
152.0621    0.020262767328583304
153.0698    0.026800114752055588
155.0855    0.0026748806448433178
159.0605    0.0019921417159988915
164.0619    0.006100319008854693
165.0699    0.3907038560038387
166.0777    0.04801318067776247
167.0324    0.0041475503132898505
168.0571    0.0016624346034172677
169.028     0.0025070185667710036
169.0479    0.02170961034516749
171.0436    0.024269239102739357
171.0804    0.0016780849146612955
175.0221    0.006895816943503675
178.0776    0.009865928868604247
179.0855    0.010007357987356816
181.0757    0.00256486327394868
181.1011    0.0017881673799148565
183.0605    0.01645539246318914
183.0799    0.0010842960324058317
184.0684    0.0013158733989112503
185.0761    0.0524599995164419
188.0648    0.002140960439368324
189.0376    0.002065370544988571
193.0759    0.001567431013928333
199.0384    0.002414435789994439
205.0691    0.001577507620689591
217.048     0.00942997288354991
219.0435    0.0039575463890299265
220.0698    0.0037052704112661597
227.0685    0.009004196261351991
231.044     0.0023012429767836316
232.051     0.0030148861499662443
233.0596    0.001466115596422414
235.0391    0.0026371489321735378
235.0583    0.0039643092279623045
237.0543    0.010505342619508593
245.059     0.00176027212231788
245.0794    0.007659246374709168
247.0751    0.009812639836631757
249.054     0.001809533905791724
253.049     0.0015250792291340034
265.0852    0.005977385987230347
316.1077    1.0


