PRECURSORMZ: 166.086254592
COMPOUNDNAME: Training-156
FORMULA: C9H11NO2
SMILES: CCOC(=O)C1=CC=C(N)C=C1
INCHIKEY: BLFLLBZGZJTVJG-UHFFFAOYSA-N
PRECURSORTYPE: [M+H]+
IONMODE: positive
CHARGE: 1
PARENTMASS: 165.078978592
NUM PEAKS: 12
53.0388     0.002823520762579365
65.0388     0.002726094953681561
77.0386     0.009070623834510813
92.0494     0.00911753673585817
93.0572     0.00765587062755144
94.0651     0.4678688677125105
95.0491     0.015002056618928328
105.0446    0.005327485077102492
120.0443    0.47359158526550077
122.0962    0.0029775979511431363
138.0548    1.0
166.0862    0.16289199349594777


