PRECURSORMZ: 318.013045874
COMPOUNDNAME: Training-234
FORMULA: C10H12N3O3PS2
SMILES: COP(=S)(OC)SCN1N=Nc2ccccc2C1=O
INCHIKEY: CJJOSEISRRTUQB-UHFFFAOYSA-N
PRECURSORTYPE: [M+H]+
IONMODE: positive
CHARGE: 1
PARENTMASS: 317.005769874
NUM PEAKS: 34
51.0233     0.008236234494186836
53.0388     0.05064443593483953
62.0187     0.015869621846163997
62.9996     0.0024088505565284172
77.0386     0.0813495395930305
78.034      0.002327357288529161
78.9944     0.1254443963418475
81.0336     0.004275966230900208
93.01       0.021204446812914113
94.0414     0.01124456355840401
95.0492     0.16162522310474123
104.0495    0.20233724784559284
105.0335    0.17255887246418922
105.0448    0.05429511284195005
109.0651    0.0023680731587432105
120.0446    0.018154463583022726
124.9821    0.22818244247691233
130.0401    0.031693267214779906
132.0444    0.6740596914346161
135.0441    0.017199709497572775
137.0056    0.011316320088267454
142.9927    1.0
148.0215    0.017163608195195603
150.0551    0.07106474461712584
151.9927    0.010392806627073162
154.0087    0.0027173497983164676
157.0084    0.08864124896047246
160.0507    0.12587281281982318
164.0705    0.020144019123999667
167.0162    0.1647610526782913
167.9698    0.009232550453954266
170.9698    0.10042928555491833
182.9934    0.04749290144875126
260.9805    0.24743909558777327


