PRECURSORMZ: 117.065853496
COMPOUNDNAME: Training-083
FORMULA: C4H8N2O2
SMILES: O=NN1CCOCC1
INCHIKEY: ZKXDGKXYMTYWTB-UHFFFAOYSA-N
PRECURSORTYPE: [M+H]+
IONMODE: positive
CHARGE: 1
PARENTMASS: 116.058577496
NUM PEAKS: 9
56.0496     0.018430487323365594
57.0575     0.043108720349381464
59.0493     0.34753206004231946
71.0491     0.0010777440079250001
72.0444     0.004665629809850236
73.0397     0.08306019084373789
86.06       0.23853690107917366
87.0678     0.37797037338262696
117.0658    1.0


