PRECURSORMZ: 180.17467567199998
COMPOUNDNAME: Training-141
FORMULA: C12H21N
SMILES: CC12CC3CC(C)(C1)CC(N)(C3)C2
INCHIKEY: BUGYDGFZZOZRHP-UHFFFAOYSA-N
PRECURSORTYPE: [M+H]+
IONMODE: positive
CHARGE: 1
PARENTMASS: 179.167399672
NUM PEAKS: 11
69.0699     0.0020759618956136074
81.0699     0.00616172669554832
91.054      0.002555790112701499
93.0698     0.010098428616082105
95.0855     0.004391490424767413
105.0698    0.0012483989648817847
107.0855    0.12944711885013205
121.1012    0.011343365925542963
135.1168    0.005997121753395596
163.148     1.0
180.1746    0.32428441287680193


