PRECURSORMZ: 200.073975656
COMPOUNDNAME: Training-173
FORMULA: C9H13NO2S
SMILES: CCNS(=O)(=O)C1=C(C)C=CC=C1
INCHIKEY: NATWUQFQFMZVMT-UHFFFAOYSA-N
PRECURSORTYPE: [M+H]+
IONMODE: positive
CHARGE: 1
PARENTMASS: 199.066699656
NUM PEAKS: 19
53.0388     0.0010973818120800008
55.018      0.008118930411791837
55.0544     0.0011324262298956056
65.0387     0.07620319580402363
67.0543     0.03708856000225494
77.0387     0.0049763593134829
91.0543     0.6770981218614655
94.0413     0.0013818314872365409
95.0492     0.014132123767467256
105.0448    0.001365714075044876
108.057     0.016600447726247608
109.0648    0.5015944628384112
119.0604    0.6492538214926422
120.0575    0.005957027066294655
123.0805    0.0022021337529520946
155.0162    1.0
173.0265    0.0011250519754156532
187.0425    0.0012481195939874272
200.0741    0.07873285306365989


