PRECURSORMZ: 217.07939538399998
COMPOUNDNAME: Training-107
FORMULA: C12H12N2S
SMILES: C1=CC(=CC=C1N)SC2=CC=C(C=C2)N
INCHIKEY: ICNFHJVPAJKPHW-UHFFFAOYSA-N
PRECURSORTYPE: [M+H]+
IONMODE: positive
CHARGE: 1
PARENTMASS: 216.072119384
NUM PEAKS: 26
80.0494     0.01717121500639202
93.0572     0.015365213970034227
97.0107     0.0017501548676396473
114.9841    0.0010241385450581765
115.0542    0.0010953975520321397
124.0215    0.4968952815182394
125.0295    0.0011533230493263513
129.0698    0.00186443863719918
134.0183    0.0012147257431469253
139.0541    0.0063691259034931325
156.0809    0.0026021137161276434
159.0263    0.001440259639993088
166.065     0.0011133494023630637
167.0729    0.023642815383472276
171.026     0.004201856648211584
173.0416    0.0019619251415905824
183.0262    0.025160331421587617
184.0341    0.021692967014509977
187.0212    0.0010587989497065392
199.0449    0.05936949488686786
200.0528    0.06411644610998618
201.037     0.005092286435616299
211.0323    0.009273485552550855
215.0634    0.0016406856778858473
216.0718    0.033939770117389724
217.0793    1.0


