PRECURSORMZ: 254.059388212
COMPOUNDNAME: Training-122
FORMULA: C10H11N3O3S
SMILES: Cc1cc(NS(=O)(=O)c2ccc(N)cc2)no1
INCHIKEY: JLKIGFTWXXRPMT-UHFFFAOYSA-N
PRECURSORTYPE: [M+H]+
IONMODE: positive
CHARGE: 1
PARENTMASS: 253.052112212
NUM PEAKS: 46
54.0341     0.0022583798248433243
55.018      0.001006474813105517
65.0387     0.05073687467537957
68.0495     0.04237149119726511
69.0335     0.004527349740807428
72.0445     0.005340917702762828
78.0338     0.007075111745356531
79.0178     0.008643679099139169
80.0495     0.016230747462576203
92.0494     0.4824165427079648
93.0573     0.19261457412647628
94.0651     0.028944927583635437
95.0365     0.0012947800962650599
96.0444     0.006373690694577099
97.0397     0.0012367883046260702
99.0553     0.19522029871869023
107.0603    0.04140367514492107
108.0444    0.6273337078256284
109.0521    0.0012102601446210004
110.06      0.050218986000052854
119.0603    0.0028232138885923874
120.0555    0.006591066825555755
121.076     0.005096359972857826
131.0603    0.007278732804517505
132.0681    0.003945354691757164
133.0633    0.003470910578453337
133.076     0.0028737623173236662
143.0603    0.002646544447061445
145.0761    0.0029734719860148007
146.0712    0.044240377619067156
147.079     0.15537260766519628
148.0868    0.03346867063363716
156.0113    0.927140976198323
160.0869    0.13149198139181176
161.0014    0.012769010582498087
161.0708    0.0025711251838572697
163.0866    0.0014793784167737114
172.0868    0.0022539481217683064
173.0584    0.003497292718587731
174.022     0.007455369391577545
174.0787    0.00125454067040351
176.0276    0.008810557908341283
188.0818    0.13888378833368403
190.0975    0.04244458509402877
194.0382    0.032495101398388494
254.0593    1.0


