PRECURSORMZ: 233.02429429999998
COMPOUNDNAME: Training-219
FORMULA: C9H10Cl2N2O
SMILES: CN(C)C(=O)NC1=CC=C(Cl)C(Cl)=C1
INCHIKEY: XMTQQYYKAHVGBJ-UHFFFAOYSA-N
PRECURSORTYPE: [M+H]+
IONMODE: positive
CHARGE: 1
PARENTMASS: 232.0170183
NUM PEAKS: 5
56.0133     0.003671627603624277
72.0445     1.0
159.9716    0.027498868113210787
187.9665    0.012524044439894072
233.0244    0.6049542173558536


