PRECURSORMZ: 296.14118262399995
COMPOUNDNAME: Training-264
FORMULA: C16H22ClNO2
SMILES: CCOCCN(C(=O)CCl)C(=C(C)C)c1ccccc1
INCHIKEY: CSWIKHNSBZVWNQ-UHFFFAOYSA-N
PRECURSORTYPE: [M+H]+
IONMODE: positive
CHARGE: 1
PARENTMASS: 295.13390662399996
NUM PEAKS: 30
65.0387     0.0018181646360999454
70.0401     0.0013821603389002357
73.0648     0.05436497791294473
91.0542     0.2536654916838077
103.0543    0.008118351497452917
104.0494    0.0021603257986225776
105.0699    0.01334861493627893
115.0541    0.009093729393265268
116.0621    0.03270790828573188
120.0211    0.0023977173237357493
128.0622    0.0017847684624697337
129.0699    0.06799074049152853
131.0855    1.0
132.0806    0.0013170101413602594
133.0648    0.0018464014430019657
134.0367    0.005526304092516928
146.0964    0.0018792751695898683
147.104     0.0039265947024711
148.0523    0.008336342930227213
148.112     0.0017830668702452468
159.1042    0.0013771582724038233
160.1121    0.014860503889982163
172.1118    0.001135854055664193
174.1278    0.007298059094680473
176.107     0.005657010475855765
190.1224    0.0024244191391729047
219.1619    0.0033684886276704002
220.1696    0.0332297993182244
250.0994    0.3969042473294707
296.1413    0.2685171568373728


