PRECURSORMZ: 409.136967748
COMPOUNDNAME: Training-298
FORMULA: C20H19F3N2O4
SMILES: CO\N=C(/C(=O)OC)c1ccccc1CO\N=C(/C)c1cccc(c1)C(F)(F)F
INCHIKEY: ONCZDRURRATYFI-QTCHDTBASA-N
PRECURSORTYPE: [M+H]+
IONMODE: positive
CHARGE: 1
PARENTMASS: 408.129691748
NUM PEAKS: 39
79.0542     0.002887072121256075
89.0385     0.01342685843146419
90.0463     0.002520310418300689
91.0542     0.022719623264467137
101.0198    0.0039024905601651393
103.0542    0.004272669999288193
105.0698    0.01891808252997647
109.0648    0.0025639411151058846
115.0543    0.0029011617141249343
116.0494    0.21705562546782275
117.0572    0.031201843216032935
118.0413    0.0014680911589558733
118.0651    0.028624874692333796
119.0492    0.009564272354316863
119.073     0.0021475424952053764
128.0494    0.001354422402307866
130.0651    0.01997630066475598
131.0729    0.1524253112028551
132.0444    0.01538503449017617
132.0807    0.09296822258021481
134.06      0.019133329609218035
143.0303    0.004615839809544659
145.0259    0.19226048818311076
146.06      0.06746682543541091
147.0678    0.011536380969104896
148.0756    0.012304284590455879
149.0471    0.0021812767263330933
159.0419    0.0025178356023855823
161.0471    0.013716110410869245
162.0913    0.016264424791225706
163.0363    0.010986158322410008
173.0321    0.058829354153907866
174.055     0.0016328014199875366
175.0629    0.0064557105041204215
178.0859    0.00411498827141509
186.0525    1.0
192.0659    0.0015159349185809347
206.0811    0.2560047511988797
409.137     0.0947422696767591


