PRECURSORMZ: 395.081344692
COMPOUNDNAME: Training-295
FORMULA: C19H11F5N2O2
SMILES: Fc1ccc(NC(=O)c2cccnc2Oc2cccc(c2)C(F)(F)F)c(F)c1
INCHIKEY: WYEHFWKAOXOVJD-UHFFFAOYSA-N
PRECURSORTYPE: [M+H]+
IONMODE: positive
CHARGE: 1
PARENTMASS: 394.074068692
NUM PEAKS: 39
78.0339     0.002242192046556741
95.0128     0.0018673032542894411
96.0444     0.009499187263788088
122.0238    0.002227164788120004
140.0347    0.0039074383758654135
141.0572    0.002656042008093916
145.0261    0.0014700591993043247
158.0398    0.0010963844944646979
169.0522    0.01392794407839727
172.037     0.0019107461788019666
178.0273    0.002530385631626476
183.0416    0.03219731094685441
185.051     0.0036538713669353492
188.051     0.0017364995484798822
190.0462    0.025396989865881802
191.0541    0.0026638549784273723
196.0387    0.0011128967523997457
197.0472    0.001057767818321683
198.0547    0.0031171410415064046
210.0525    0.019932442556607245
213.0459    0.003157553764339944
214.0487    0.0032702498411318103
216.0457    0.002680982641559918
218.0412    0.03542842569985618
219.0489    0.01633502792735543
233.0521    0.04051637178500953
238.0474    0.11265998862838222
246.0361    0.16521356901568615
265.0548    0.009925224923910498
266.0423    1.0
284.0529    0.06749629753503462
298.0684    0.004382263620856885
307.0683    0.003542790728786916
335.0625    0.011077019298304291
355.069     0.006970129435767082
357.0658    0.0037454429914043946
375.0753    0.019966824977423994
377.0707    0.011227760125756714
395.0815    0.7511485333957657


