PRECURSORMZ: 136.05053777999998
COMPOUNDNAME: Training-094
FORMULA: C6H5N3O
SMILES: O=C1C=CC=C2NNN=C12
INCHIKEY: NPZTUJOABDZTLV-UHFFFAOYSA-N
PRECURSORTYPE: [M+H]+
IONMODE: positive
CHARGE: 1
PARENTMASS: 135.04326178
NUM PEAKS: 9
53.0388     0.0021644513726770554
54.034      0.0012286672189961067
63.0229     0.001540468825784097
68.0132     0.0014293449234444974
80.0495     0.06544317360444027
81.0335     0.005980285047284558
90.0338     0.002421580857444275
108.0444    0.0061465434431009465
136.0505    1.0


