PRECURSORMZ: 321.005050844
COMPOUNDNAME: Training-005
FORMULA: C11H12Cl2N2O5
SMILES: OC[C@@H](NC(=O)C(Cl)Cl)[C@H](O)C1=CC=C(C=C1)[N+]([O-])=O
INCHIKEY: WIIZWVCIJKGZOK-RKDXNWHRSA-N
PRECURSORTYPE: [M-H]-
IONMODE: negative
CHARGE: -1
PARENTMASS: 322.012326844
NUM PEAKS: 19
84.0074     0.01337403263426895
121.0289    0.40488623337275087
125.9513    0.00956449261771502
126.9355    0.03884380288513412
135.0322    0.006572873135057906
148.0405    0.08076467423300489
150.0195    0.009564311581740278
151.0275    0.40293285520525496
152.0353    1.0
159.0324    0.02407543117338105
164.0351    0.0075595191974168335
166.0148    0.01066989827950651
176.0353    0.1865430890964929
194.046     0.265945829691493
219.0411    0.011540319246079305
237.0518    0.03542711093377631
249.052     0.06428388323614115
257.0335    0.511722803508622
321.005     0.9724801783711251


