PRECURSORMZ: 362.21145510400004
COMPOUNDNAME: Training-308
FORMULA: C24H27NO2
SMILES: CCCCC(CC)COC(=O)C(C#N)=C(C1=CC=CC=C1)C1=CC=CC=C1
INCHIKEY: FMJSMJQBSVNSBF-UHFFFAOYSA-N
PRECURSORTYPE: [M+H]+
IONMODE: positive
CHARGE: 1
PARENTMASS: 361.20417910400005
NUM PEAKS: 37
53.0388     0.0026222915110722155
57.07       0.054060299245357366
68.9972     0.0028160591037454164
71.0856     0.06313691586215744
95.0492     0.006633946012734689
104.0494    0.016208970793298784
105.0335    0.23184029480089255
113.1325    0.001464134238110293
128.0494    0.002656808660444416
129.0335    0.010385156403923958
147.044     0.011982825045399215
153.0699    0.0030955754665542567
154.0284    0.0013760563240457764
157.0284    0.014929927132159446
165.0696    0.0024711357974912447
167.0855    0.0011751008404773142
175.039     0.009204261340639971
176.0618    0.009698679413575014
177.0698    0.0405776296034957
178.0775    0.0076113273523971845
179.0854    0.005754885093020663
181.0653    0.002461742856401022
182.0963    0.013479930034043684
183.0804    0.004322795675276099
195.0808    0.0071259776677098175
203.0729    0.043865664905681126
204.0808    0.24478500856055851
205.076     0.01209630399222906
206.0965    0.014902645602041704
207.0803    0.006770630487806741
222.0914    0.011800407256543367
232.0757    0.8924257194000125
236.1069    0.0051842543761177985
250.0863    1.0
264.1021    0.013311324832339818
282.1124    0.007108738184367397
362.2112    0.0015303907463493532


