PRECURSORMZ: 280.154334152
COMPOUNDNAME: Training-223
FORMULA: C15H21NO4
SMILES: COCC(=O)N(C(C)C(=O)OC)c1c(C)cccc1C
INCHIKEY: ZQEIXNIJLIKNTD-UHFFFAOYSA-N
PRECURSORTYPE: [M+H]+
IONMODE: positive
CHARGE: 1
PARENTMASS: 279.147058152
NUM PEAKS: 31
91.0543     0.001827316801624678
105.0699    0.00808500658857817
107.0855    0.001214346189018471
118.0652    0.003903070965188175
119.0856    0.0052407595199587724
120.081     0.0010809528010693543
121.0886    0.006240298915053203
130.0652    0.003212390729570041
131.0731    0.005608465338749016
132.0808    0.023726098865214065
133.0886    0.03695137998764048
134.0965    0.0790686497476044
144.0806    0.004035434309476563
145.0887    0.05081827862905622
146.0965    0.04294090091479654
147.1044    0.0018424507465002744
148.1121    0.16330496418964258
150.0914    0.0056140723261076005
158.0969    0.0033660190707725884
160.1121    0.709573886121132
161.0836    0.003375867364899154
162.1277    0.10575275304719638
164.107     0.0031066789763823984
165.1149    0.02404268272124934
188.1071    0.00829216523471671
192.1383    0.7217987420697994
208.1332    0.004662415871215555
220.1333    1.0
248.1282    0.43329220224731047
252.1597    0.001920701678696096
280.1545    0.25628197930161545


