PRECURSORMZ: 231.14918919599998
COMPOUNDNAME: Training-206
FORMULA: C14H18N2O
SMILES: CC(C)C1=C(C)N(C)N(C1=O)c1ccccc1
INCHIKEY: PXWLVJLKJGVOKE-UHFFFAOYSA-N
PRECURSORTYPE: [M+H]+
IONMODE: positive
CHARGE: 1
PARENTMASS: 230.141913196
NUM PEAKS: 44
56.0497     0.056406231438616436
58.0653     0.004095612207551679
70.0652     0.0015011957953489643
79.0542     0.0011204668288642828
81.0699     0.0022005741599151617
82.0651     0.002640376843276761
92.0495     0.0023181084306548166
94.0651     0.0018747239335635767
95.0729     0.002620408982904235
96.0808     0.0039485064139816945
97.0886     0.0025137766308897884
98.06       0.0018781668295802033
100.112     0.0016428640270511395
104.0494    0.0027437945769771457
110.0964    0.006406717130320923
112.0757    0.002622125293038331
112.1121    0.015768199708437215
118.0651    0.006435975698078677
120.0445    0.00222225351772948
120.0808    0.009891546004926366
124.0756    0.005462606728345715
130.0652    0.0026541576625095827
131.073     0.005808045522887105
132.0808    0.00230238237322151
133.076     0.001525931212776817
134.0964    0.001996572067554258
138.0912    0.0037619632084293477
144.0808    0.0077620968035648176
146.084     0.004936455500088367
146.0964    0.011057751100582085
147.0917    0.0017767212591426587
148.0758    0.0014241019276825394
148.112     0.0012986688582158578
160.0997    0.0034255560163253184
161.1074    0.004636844982691789
172.0757    0.0016698223880327395
172.1121    0.0026738220631213785
188.0943    0.0019814407028025042
189.1023    0.10520786793298019
201.1023    0.028680438542096166
203.1542    0.002845354091156825
215.1179    0.0019065742011638372
216.1257    0.007109751320020043
231.1493    1.0


