PRECURSORMZ: 249.02270380000002
COMPOUNDNAME: Training-008
FORMULA: C12H10O4S
SMILES: Oc1ccc(cc1)S(=O)(=O)c1ccc(O)cc1
INCHIKEY: VPWNQTHUCYMVMZ-UHFFFAOYSA-N
PRECURSORTYPE: [M-H]-
IONMODE: negative
CHARGE: -1
PARENTMASS: 250.0299798
NUM PEAKS: 4
155.9887    0.08799405204935969
184.0534    0.014361968893048692
185.0613    0.01594942005884063
249.0229    1.0


