PRECURSORMZ: 253.16590187999998
COMPOUNDNAME: Training-182
FORMULA: C12H20N4O2
SMILES: CN(C)C1=NC(=O)N(C2CCCCC2)C(=O)N1C
INCHIKEY: CAWXEEYDBZRFPE-UHFFFAOYSA-N
PRECURSORTYPE: [M+H]+
IONMODE: positive
CHARGE: 1
PARENTMASS: 252.15862588
NUM PEAKS: 12
55.0544     0.0019931342755745607
58.0652     0.0011299872933826934
71.0604     0.18074076829480645
72.0444     0.005723666654267337
83.024      0.008620412854546698
83.0855     0.008198153685916356
85.076      0.1171598095678618
101.0345    0.014329694938755397
114.0661    0.012876178138472479
128.0818    0.0037272896844586264
171.0875    1.0
253.1658    0.2872806599031019


