PRECURSORMZ: 165.10223900399998
COMPOUNDNAME: Training-119
FORMULA: C9H12N2O
SMILES: CN(C)C(=O)Nc1ccccc1
INCHIKEY: XXOYNJXVWVNOOJ-UHFFFAOYSA-N
PRECURSORTYPE: [M+H]+
IONMODE: positive
CHARGE: 1
PARENTMASS: 164.094963004
NUM PEAKS: 7
56.0132     0.0015800204373442673
72.0444     1.0
77.0386     0.001817370351524431
92.0495     0.013472359034144784
95.0493     0.002868452166369041
120.0444    0.0344386108137345
165.1023    0.4595646296482119


