PRECURSORMZ: 197.060848368
COMPOUNDNAME: Training-154
FORMULA: C10H9FO3
SMILES: OC(=O)CCC(=O)C1=CC=C(F)C=C1
INCHIKEY: WUYWHIAAQYQKPP-UHFFFAOYSA-N
PRECURSORTYPE: [M+H]+
IONMODE: positive
CHARGE: 1
PARENTMASS: 196.053572368
NUM PEAKS: 33
55.018      0.00421230682554051
57.0701     0.001162589469597943
67.0543     0.006091404563185676
69.0699     0.0032767086181101756
79.0543     0.00374106162860004
81.0699     0.008976010038115295
83.0492     0.001418652446575893
85.0283     0.0015118794670386014
85.0648     0.003576357696317812
91.054      0.0022063370326410514
93.0699     0.005468509793346055
95.0293     0.003774126946774285
95.0491     0.0031644368332185355
97.0648     0.007567277186991674
99.0441     0.0011551819794874789
103.0543    0.004347273442451746
105.0699    0.0049291801003467995
109.0448    0.0033339502663261083
109.0648    0.015207469841853307
111.044     0.003704389184806787
113.0398    0.001501616335813089
113.0597    0.00293424639416264
115.0541    0.005473297823185573
121.0449    0.014595589687743158
121.0646    0.0014357004093228738
123.0241    0.5063974949371416
133.0448    0.059524722551921136
135.0605    0.022779470645727017
137.0597    0.013243003464558274
151.0554    0.338013113619304
161.0399    0.0013884857114883516
179.0503    1.0
197.0603    0.002747212636619883


