PRECURSORMZ: 181.07602425599998
COMPOUNDNAME: Training-215
FORMULA: C12H8N2
SMILES: C1=CC2=NC3=CC=CC=C3N=C2C=C1
INCHIKEY: PCNDJXKNXGMECE-UHFFFAOYSA-N
PRECURSORTYPE: [M+H]+
IONMODE: positive
CHARGE: 1
PARENTMASS: 180.068748256
NUM PEAKS: 5
111.0231    0.0010434588155500007
121.0076    0.0016381063685822147
154.0645    0.0010023243891737895
180.0678    0.0014344021725339082
181.0758    1.0


