PRECURSORMZ: 427.2251835160001
COMPOUNDNAME: Training-033
FORMULA: C25H28N6O
SMILES: CCCCC1=NC2(CCCC2)C(=O)N1Cc1ccc(-c2ccccc2C2NN=NN=2)cc1
INCHIKEY: YOSHYTLCDANDAN-UHFFFAOYSA-N
PRECURSORTYPE: [M-H]-
IONMODE: negative
CHARGE: -1
PARENTMASS: 428.23245951600006
NUM PEAKS: 15
95.0238     0.0036944877369545636
110.0602    0.003645466784292069
138.0798    0.01914239585178229
139.0876    0.004892913169024804
151.0877    0.007531148678496517
164.0955    0.03844177072887998
175.1241    0.007021480073200476
177.071     0.005793666953265054
193.1346    1.0
195.0815    0.01346074301953765
287.1552    0.005866153265501523
353.2019    0.004179446796060831
371.2134    0.003083169085147715
399.219     0.04407486295750997
427.225     0.5706144645776648


