PRECURSORMZ: 189.98209513999998
COMPOUNDNAME: Training-103
FORMULA: C7H5Cl2NO
SMILES: NC(=O)c1c(Cl)cccc1Cl
INCHIKEY: JHSPCUHPSIUQRB-UHFFFAOYSA-N
PRECURSORTYPE: [M+H]+
IONMODE: positive
CHARGE: 1
PARENTMASS: 188.97481914
NUM PEAKS: 14
75.0233     0.0011687855303451056
84.9839     0.002292685016572673
108.9842    0.0014050042904977978
126.9944    0.0013424278259114753
128.0024    0.0014254934289928052
139.0058    0.0018308247802451827
144.9605    0.0025644063956034684
146.9762    0.011533432176428401
155.0006    0.0012007979064632337
162.971     0.0022601094174795706
164.001     0.0019157366238892657
171.9714    0.032094445751624325
172.9555    0.79278483099179
189.982     1.0


