PRECURSORMZ: 242.14339260799997
COMPOUNDNAME: Training-212
FORMULA: C10H19N5S
SMILES: CCNC1=NC(NC(C)(C)C)=NC(SC)=N1
INCHIKEY: IROINLKCQGIITA-UHFFFAOYSA-N
PRECURSORTYPE: [M+H]+
IONMODE: positive
CHARGE: 1
PARENTMASS: 241.13611660799998
NUM PEAKS: 17
57.0701     0.00560975875542166
68.0244     0.012809775854198555
71.0604     0.045534055779522166
74.0059     0.007940408610518377
85.0509     0.006315235287821126
91.0324     0.09673807071135647
96.0556     0.04660205414296338
102.0372    0.005453271483126667
110.0462    0.004384903915870617
113.0822    0.011541338151936734
116.0277    0.021224440551175647
138.0774    0.03784854238925704
144.059     0.023886970338189727
158.0495    0.03985890759873045
171.0572    0.0023958275767128326
186.0808    1.0
242.1434    0.6679752594869321


