PRECURSORMZ: 455.29043369599987
COMPOUNDNAME: Training-175
FORMULA: C27H38N2O4
SMILES: COc1ccc(CCN(C)CCCC(C#N)(C(C)C)c2ccc(OC)c(OC)c2)cc1OC
INCHIKEY: SGTNSNPWRIOYBX-UHFFFAOYSA-N
PRECURSORTYPE: [M+H]+
IONMODE: positive
CHARGE: 1
PARENTMASS: 454.2831576959999
NUM PEAKS: 70
58.0653     0.046124191058373586
77.0386     0.0017221793050255251
79.0543     0.02662648479667163
84.0808     0.006952833050203596
86.0965     0.004552185598262269
91.0542     0.007758615749428286
93.0699     0.0010880572091298989
94.0651     0.0032597898896734334
95.0492     0.00298168726221279
95.0855     0.0010545484677296267
96.0808     0.010016000657331282
103.0542    0.02353175768076348
104.062     0.004468938130710939
105.0699    0.08834915009825665
107.0492    0.00871689260680685
107.0856    0.0031128165394365276
108.0569    0.0013385673995808221
108.0807    0.0024666913273515435
109.0649    0.0014570150622006989
110.0964    0.0032409014018412864
115.0542    0.0014715909233075032
117.07      0.0025075793065267977
118.0414    0.013342985599650541
119.049     0.006677317292534455
120.0569    0.012576154762935781
121.0648    0.016340744950700557
122.0726    0.006550989463570376
122.0964    0.014255001981114478
123.0805    0.0028070004046171068
124.0521    0.0011726192988880657
131.049     0.005133941741432316
132.0571    0.002658025862402257
133.0648    0.0692674289444175
134.0726    0.044341717710598444
135.0441    0.0305807281550146
135.0805    0.029957697616471896
136.0519    0.0033163332739012444
137.0596    0.00713636006111954
137.0963    0.0022999169215264775
138.0677    0.0044461577356164185
139.0752    0.005588517014137224
146.0726    0.0023616123535664217
149.0596    0.006673295739106635
150.0676    0.31320362555653014
151.0754    0.03529058921791057
152.0832    0.00395195411982623
163.0754    0.0012157546464176777
164.0831    0.002461924182357451
165.0911    1.0
175.0755    0.0010851469806144578
176.0708    0.002961837778485008
177.0911    0.02730691024756384
187.099     0.003649388723878971
190.0861    0.003386499594696828
191.1064    0.004556547157587023
194.1175    0.0014896415034322235
202.0864    0.004050844885395211
203.0942    0.003068358498343475
204.102     0.001160850252040217
212.1196    0.0025001390291175
214.1233    0.001039484794008083
217.1099    0.0057970526190301115
218.1176    0.012546701878228896
233.1541    0.002550941156501102
243.1378    0.006152270500862384
245.1411    0.004044748488860438
260.1646    0.048973309315128444
261.1599    0.012619102955884145
303.2068    0.16581273395331575
455.2906    0.8127557459785878


