PRECURSORMZ: 239.03498273600002
COMPOUNDNAME: Training-044
FORMULA: C14H8O4
SMILES: Oc1cc(O)c2C(=O)c3ccccc3C(=O)c2c1
INCHIKEY: WPWWKBNOXTZDQJ-UHFFFAOYSA-N
PRECURSORTYPE: [M-H]-
IONMODE: negative
CHARGE: -1
PARENTMASS: 240.042258736
NUM PEAKS: 8
155.0502    0.0011104356589962223
167.0502    0.009462900824330902
183.0455    0.0022037739363343213
195.0451    0.12105621824771978
197.0243    0.005774489963822683
210.0323    0.004963144215628692
211.0401    0.14389626331510375
239.0349    1.0


