PRECURSORMZ: 281.99855262399996
COMPOUNDNAME: Training-220
FORMULA: C8H12INO2
SMILES: CCCCNC(=O)OC#CCI
INCHIKEY: DNKGZSOYWMQDTK-UHFFFAOYSA-N
PRECURSORTYPE: [M+H]+
IONMODE: positive
CHARGE: 1
PARENTMASS: 280.99127662399997
NUM PEAKS: 17
55.0181     0.024045296198519615
57.0701     0.2567726116645062
68.0497     0.0029113355463439377
74.0237     0.004991215057361765
86.0965     0.007494733521982017
88.0393     0.0025465606233697853
96.0808     0.0022481332798244638
100.0758    0.005188270445452794
116.0708    0.0030285165520628054
126.9037    0.002699620779391734
155.0942    0.01160121873716503
164.9198    1.0
166.9353    0.003835692724033133
181.9465    0.00288985079487597
182.9301    0.002701937217684083
238.0091    0.0017435301066459127
281.999     0.023758215983509693


