PRECURSORMZ: 137.07093887599999
COMPOUNDNAME: Training-075
FORMULA: C7H8N2O
SMILES: C1=CC(=CC=C1C(=O)N)N
INCHIKEY: QIKYZXDTTPVVAC-UHFFFAOYSA-N
PRECURSORTYPE: [M+H]+
IONMODE: positive
CHARGE: 1
PARENTMASS: 136.063662876
NUM PEAKS: 12
65.0386     0.004052718154717684
68.0495     0.00208739468417224
77.0386     0.0016836551186040249
81.07       0.0011901456896488834
92.0495     0.024043933574291868
93.0572     0.00138522912357021
94.0651     0.1925414367035289
95.0492     0.0019986635960211867
110.0601    0.004038568961565695
119.0604    0.0011340468610153587
120.0444    1.0
137.0709    0.3136009798598411


