PRECURSORMZ: 239.15025181599998
COMPOUNDNAME: Training-134
FORMULA: C11H18N4O2
SMILES: CN(C)C(=O)Oc1nc(nc(C)c1C)N(C)C
INCHIKEY: YFGYUFNIOHWBOB-UHFFFAOYSA-N
PRECURSORTYPE: [M+H]+
IONMODE: positive
CHARGE: 1
PARENTMASS: 238.142975816
NUM PEAKS: 14
56.0132     0.0034960409714739093
72.0445     1.0
83.024      0.005560329576588672
85.076      0.04655603173388228
109.0761    0.021083995565033632
137.0709    0.034882517851765174
138.0788    0.006969735883524625
150.1026    0.02313799964269769
152.0819    0.002174124576977854
166.0975    0.00462558019147067
167.1054    0.0096443317358565
182.1289    0.5281812487165517
195.1605    0.043870261840453194
239.1503    0.5905997613777241


