PRECURSORMZ: 719.3495564079999
COMPOUNDNAME: casmi2022challengepriority131
FORMULA: C33H54O14
SMILES: CC(=CCCC(C)(C=C)OC1C(C(C(C(O1)CO)O)O)OC2C(C(C(C(O2)CO)O)O)O)CCC=C(C)CC(C=C(C)C(=O)OC)O
INCHIKEY: LAMRTXHVEXWMOH-PVNJHXBISA-N
PRECURSORTYPE: [M+FA-H]-
PRECURSORINTENSITY: 47991894.26953
IONMODE: negative
CHARGE: -1
PARENTMASS: 674.3513554079999
NUM PEAKS: 34
51.05597687 0.011982979696749978
55.01758957 0.21002289405457203
57.03322601 0.16315053376956323
58.00460052 0.02175013741481235
59.00395203 0.015308697736961115
59.00961304 0.018497915838482516
59.01247406 0.9558770549506234
69.03313446 0.09737644793653202
71.01244354 1.0
71.0160675  0.012734080264354736
72.99163818 0.06685187674725386
73.02814484 0.20237153946538833
83.0124588  0.19193087627686087
85.02249146 0.02857922322390217
85.02805328 0.5880291179397724
85.03386688 0.02012100713750308
87.00733948 0.09179295141253735
89.02249908 0.015246136654314204
95.01230621 0.09479689827926104
97.02791595 0.02282041904738707
99.0071106  0.053541792943605615
100.3727646 0.01579011636839563
101.0229187 0.14491972195704717
113.02314   0.10109645205650421
151.0751038 0.053871570276701204
158.4736786 0.014964454830771466
163.0748901 0.0233324586980076
164.0826874 0.12900868452244704
215.3853455 0.0942796963024655
239.3685303 0.013182130816455116
262.8389282 0.014468791822323817
304.276825  0.019524542147533935
534.3122559 0.016847531220135444
601.5921021 0.01615293811891314


