PRECURSORMZ: 600.4681281839999
COMPOUNDNAME: casmi2022challengepriority49
FORMULA: C30H62O10
SMILES: CCCCCCCCCCCCOCCOCCOCCOCCOCCOCCOCCOCCOCCO
INCHIKEY: ONJQDTZCDSESIW-UHFFFAOYSA-N
PRECURSORTYPE: [M+NH4]+
PRECURSORINTENSITY: 10599913.5
IONMODE: positive
CHARGE: 1
PARENTMASS: 582.4343051839999
NUM PEAKS: 40
55.05441284 0.0135670293247236
57.07006073 0.33526947859219286
57.07471848 0.0038206170093979543
59.04933929 0.004930033070348053
63.97409439 0.0033057600058614303
65.61903381 0.0028253893325546997
69.06987762 0.024910137407684572
71.08550262 0.3115472443473999
73.06473541 0.09137401666135199
75.89278412 0.002897922868285564
78.50653839 0.00298867112837784
83.08543396 0.020623274044108002
85.10112762 0.21177057986968506
87.04403687 0.06937406126859391
89.04285431 0.007645833336015346
89.05962372 1.0
89.07281494 0.01174366204633051
91.07531738 0.005628039049392047
97.10125732 0.03012179040273581
99.11668396 0.022725460722647618
102.9230118 0.002742275003694767
103.0389633 0.004153157802495405
107.0701981 0.013153166206583411
111.1166229 0.013454568827558187
112.7134705 0.0032256405636952664
113.1322937 0.014053792576260682
117.0908508 0.043230797934086074
127.148056  0.005637364408950234
130.0860748 0.014474141807838181
131.0701752 0.012180943161877171
133.076355  0.003253212831771994
133.0856934 0.33528853161327465
146.5137024 0.0032152385435021023
162.1310272 0.003256068924287697
177.1114502 0.04755947857545711
195.1206665 0.0035113644713231306
220.151062  0.00522959365119866
273.3563538 0.0033914583705329064
281.5410461 0.00361776630088948
390.5105591 0.0032346493618943956


