PRECURSORMZ: 902.5118707000004
COMPOUNDNAME: casmi2022challengepriority215
FORMULA: C44H75NO15
SMILES: CC(=O)NC1C(C(C(OC1OC(C)(C)C2CCC(O2)(C)C(CCC(=C)C3CCC4C3(CCC5C4(CCC(O5)C(C)(C)OC6C(C(C(C(O6)CO)O)O)O)C)C)O)CO)O)O
INCHIKEY: LRHHFHPQWVDGIQ-JTHVBYAHSA-N
PRECURSORTYPE: [M+FA-H]-
PRECURSORINTENSITY: 7118021.789063
IONMODE: negative
CHARGE: -1
PARENTMASS: 857.5136697000004
NUM PEAKS: 27
68.21187592 0.02504183162064903
70.41428375 0.026282200344275662
71.01249695 0.23621093610584143
83.01234436 0.10196826019992149
85.02798462 0.031207562671074333
89.02292633 0.25506604107697334
92.9068985  0.02268010469659009
100.0389786 0.8774349541377597
101.0230789 0.4501695296821078
112.0389404 1.0
113.0226669 0.09950659312601752
119.0334854 0.3138537185340556
125.5877075 0.030286391914189505
128.0343475 0.21729566525643595
142.0495911 0.15073669226313202
154.0495758 0.03716768407354466
202.0710907 0.9597470919139146
215.5860901 0.052851942247345865
215.6116638 0.13575472967222432
227.2416229 0.02904501596461738
304.2729187 0.0513639040420818
320.3237915 0.034198371691425776
409.542572  0.025021204937363595
653.4298706 0.03464578591764289
694.4537964 0.1092057911888492
794.8674316 0.03159740200909832
856.5009766 0.12842558401945953


