PRECURSORMZ: 812.48041928
COMPOUNDNAME: casmi2022challengepriority91
FORMULA: C43H65N5O10
SMILES: CCC1C2(C(C(C(=O)C(CC(C(C(C(=O)C(C(=O)O1)C)C)OC3C(C(CC(O3)C)N(C)C)O)(C)OC)C)C)N(C(=O)O2)CCCCN4C=C(N=C4)C5=CN=CC=C5)C
INCHIKEY: LJVAJPDWBABPEJ-XZVSULPPSA-N
PRECURSORTYPE: [M+H]+
PRECURSORINTENSITY: 71124934.78125
IONMODE: positive
CHARGE: 1
PARENTMASS: 811.4731432799999
NUM PEAKS: 146
57.03381348 0.0018208915019094706
57.05754089 0.021303748284260487
58.06539536 0.015161943857768083
59.04940033 0.020790254984695063
67.05426788 0.0023481267244048636
68.04958344 0.0015012080462213678
69.03359985 0.0013909213550067367
69.07002258 0.0017022387752893581
69.25726318 0.013767290263842609
69.26200104 0.005916147130728952
70.06523132 0.01610310496859677
70.81491852 0.0012562731124169597
71.07314301 0.006624292618507341
71.53368378 0.0012818077356937102
72.06713867 0.0019348101787450107
72.07129669 0.005236900588781721
72.08083344 0.5615867220632933
72.08428192 0.01314540016206132
72.09065247 0.004838383981347543
72.09229279 0.005162670303033104
72.81549835 0.013356851096147655
72.82065582 0.005559291605624082
73.05236816 0.009435179900390826
74.78465271 0.0018587009560385559
79.10812378 0.0011440308199578949
83.04918671 0.038124506074988795
84.08074951 0.017016327061929917
85.06506348 0.0022390992771941826
86.06004333 0.0019513269396521967
87.0379715  0.0015762820001786989
87.0440979  0.07533948919873616
87.06797028 0.004454104545727635
88.07571411 0.07655571166025045
88.08094025 0.0014423942624977593
95.04906464 0.010640770938954335
97.06471252 0.0025980708328904377
98.0599823  0.0064730923518456045
98.09645844 0.41660731093744463
98.11508942 0.002087050768943998
99.0807724  0.001339880511548422
99.10422516 0.006962667356813739
100.0686951 0.0022210914741418223
100.0756912 0.050623901426047196
101.0830841 0.0018228881432193944
102.4112854 0.0011408862603348878
107.0859299 0.0011497795582827786
109.1012726 0.0023011754452449944
110.0966187 0.0014686707361081066
110.3697052 0.0012459235540802757
112.0404892 0.00127542426040267
112.1121979 0.004704757046663493
113.050293  0.0012093408488886136
113.0597153 0.11829133141386179
113.0687866 0.003058721618086783
114.0913544 0.034112325287266015
115.0756836 0.0011644285749772513
116.0446548 0.0012634351454315499
116.0706482 0.42030847109315905
116.0871964 0.006993289263283405
116.0923157 0.004348533129370225
116.1069489 1.0
116.1268005 0.007001399069071706
116.1314392 0.008011662503446884
121.100502  0.0017065227082264606
123.0803604 0.04769581382666525
123.0904388 0.0015984858791364658
125.0963898 0.0029381069115610417
128.1068573 0.004724282489674753
131.0708466 0.001332300856752889
137.0960693 0.026848717990193133
137.1325226 0.0012040614837468947
140.1069336 0.007736209767737781
146.0710449 0.010190092769322963
150.1273956 0.009450918103574438
151.111969  0.0018177441741881915
153.090744  0.0021277755119489413
154.0864868 0.006846308059777828
155.1069946 0.0050275331902202465
155.8279114 0.005273644565785034
156.0536957 0.0011362655822268642
157.1017151 0.0013663517148537335
158.0754547 0.0017513504949648534
158.086853  0.007125789220919467
158.1175232 0.7451282548984267
158.14888   0.004264717039700402
158.1555634 0.003999181316886882
163.0760803 0.006936482591502256
163.1118622 0.0028188661445888927
163.8345795 0.003369011712858765
163.8507996 0.0020037221052720765
165.1274109 0.02954460884220126
167.0724792 0.001323366037331115
169.0856781 0.013157709774670063
175.11203   0.011240720371816735
177.1270294 0.015335572460050805
180.1740417 0.0021492234593776046
181.0860291 0.0254096669886326
187.1484833 0.0018691405377447288
191.1054993 0.0016315851131964562
193.1222992 0.01054807190161707
200.1180878 0.023893573313491605
203.1420746 0.00213461367746716
205.158905  0.002170126933913796
209.1171265 0.006255892920138584
214.8201599 0.005508335971451327
214.845459  0.00521950537790944
215.14151   0.0015376855636791617
219.1013947 0.001387058173005082
220.1600647 0.001320872101151233
221.1538544 0.007591915785881871
225.1495209 0.0019475670197508384
231.1368561 0.0019568987603926567
233.1539917 0.012389476335503908
249.1477051 0.008536729342188167
259.1689148 0.0019381361089800889
261.1342468 0.006017217378611911
261.1834412 0.0013288914021616516
265.1806335 0.0023553449618493477
267.1591492 0.0021386223651555835
287.1635742 0.012032503346751149
295.1914673 0.011303187924891048
299.150177  0.14990901766499212
304.2288208 0.0013041104237241261
304.2632751 0.001517668482346574
305.1745911 0.047192923065547024
319.2261047 0.005565349167433069
339.1812439 0.01582383129447251
357.1933289 0.008873344532818187
363.2150879 0.02025749186997506
369.2295837 0.0020942191806198073
432.4894714 0.0012000085064863164
469.2420959 0.004624909687785475
478.2810974 0.005295017654208587
493.2777405 0.0022428747225162024
511.2933655 0.02306677943176864
525.3093872 0.0021793259261912354
543.317627  0.04748881592021407
579.3540039 0.007563329274097763
605.3330078 0.04552457339513847
623.3433228 0.4905540124811866
637.3601074 0.03535653490711514
655.3695679 0.43202513490988803
665.3585205 0.008793038873150043
683.3630981 0.011705753176910267
697.3775024 0.010710280534001297
812.4797974 0.005523981744223485


