PRECURSORMZ: 495.1144148279998
COMPOUNDNAME: casmi2022challengepriority234
FORMULA: C22H24O13
SMILES: COC1=C(C=CC(=C1)C(=O)OC2=CC(=CC(=C2CC(=O)O)O)OC3C(C(C(C(O3)CO)O)O)O)O
INCHIKEY: QCKMSYZHBPNLCB-ZFVOUSBOSA-N
PRECURSORTYPE: [M-H]-
PRECURSORINTENSITY: 79521833.875
IONMODE: negative
CHARGE: -1
PARENTMASS: 496.12169082799977
NUM PEAKS: 48
55.01806641 0.0020167053163374546
56.16539383 0.0013812525398600084
59.01262283 0.0017171289261637274
65.00211334 0.0026806470966022665
71.04884338 0.02515117828489408
77.03827667 0.008023666042467488
83.01262665 0.007984660506476868
85.02840424 0.001861674451902332
90.86816406 0.0014903970646048142
91.01744843 0.024010086972902526
93.03314209 0.006474014103521414
95.01216125 0.003504721651031382
95.04876709 0.01787327865208724
97.0280838  0.09140826041718926
101.0229874 0.0022454503255975814
102.3582382 0.0015125048792520334
108.0202484 0.03101707004913694
113.02314   0.0021779786841001794
117.8575211 0.0016199894082681151
121.0282822 0.03838888270249355
123.0331345 0.0017938958870366275
123.0361633 0.0020936774112408586
123.0438309 0.1304457938602231
137.0111847 0.0035656919090177822
137.0232086 0.11992933838780266
139.0023804 0.003380802032348108
139.0135803 0.009668845114722314
139.0195465 0.006998226773742774
139.0291138 0.016430082115660494
139.0387421 1.0
139.0661163 0.006383918960816537
139.070755  0.009921678769512252
151.0020447 0.0020152529604887982
151.9965515 0.0019070718052916198
152.0103455 0.07088175090944436
153.0549469 0.006083812885888391
163.0395355 0.01886308715933497
164.9861145 0.00660567938964124
165.0052185 0.010374614708864992
165.0181427 0.74652487537031
165.0523529 0.004410378199490855
165.059021  0.003533362301922165
167.0338593 0.12069992065782073
167.0503998 0.0020806145038291205
181.0505676 0.002772773705632817
183.0288391 0.04127376880925944
221.302597  0.0026273870785239826
345.0817871 0.003366012335355245


