PRECURSORMZ: 229.144533184
COMPOUNDNAME: casmi2022challengepriority197
FORMULA: C12H22O4
SMILES: C(CCCC(C=CCO)O)CCCC(=O)O
INCHIKEY: FLXFNIBELQCRPA-NSHDSACASA-N
PRECURSORTYPE: [M-H]-
PRECURSORINTENSITY: 81810450.37109
IONMODE: negative
CHARGE: -1
PARENTMASS: 230.151809184
NUM PEAKS: 29
55.01750946 0.06915915844362829
57.03329468 0.35545345108153226
67.01755524 0.13318844116538434
69.03324127 0.04767114677372186
71.04884338 0.0805380538612871
80.02558899 0.04667507864924477
81.03318787 0.045096022875655506
83.04866028 0.20871012435374892
84.02013397 0.2087375207192144
85.02803802 0.0862867761573848
97.0645752  0.05678269144241196
123.0796585 0.15268338354533545
125.0958176 0.5335046304258004
127.1116333 0.7659201078305299
135.1767731 0.03206451423587532
138.9628601 0.0685711959339817
153.1269226 0.0342128981827849
155.1423035 0.03686115375303153
163.1110992 0.12517737557617115
165.1269836 0.13208790911851437
167.1426239 0.19874897862568489
171.1015778 1.0
183.1382446 0.13514737093329393
193.1223907 0.04726357898165184
209.1174774 0.19601553518971063
211.1327515 0.43191506103212685
215.102951  0.16626368530758182
215.129364  0.1769165037009377
229.1444397 0.3592980037453325


