PRECURSORMZ: 528.3378422919998
COMPOUNDNAME: casmi2022challengepriority130
FORMULA: C24H46O11
SMILES: CCCCCCCCCCCCOC1C(C(C(C(O1)CO)OC2C(C(C(C(O2)CO)O)O)O)O)O
INCHIKEY: NLEBIOOXCVAHBD-QKMCSOCLSA-N
PRECURSORTYPE: [M+NH4]+
PRECURSORINTENSITY: 20311075.59766
IONMODE: positive
CHARGE: 1
PARENTMASS: 510.3040192919998
NUM PEAKS: 35
52.60469055 0.003271079241172678
53.76690674 0.0030903429365385375
55.01819229 0.0048227911173124695
57.03380585 0.021954414721923266
59.17242813 0.0034032124056409467
59.90049362 0.003455484863119362
61.02856445 0.06127633914294465
69.03356934 0.07635531430161477
71.04902649 0.007261482866518426
73.02831268 0.03162886840746164
81.03356934 0.02638185671295166
85.01593018 0.004588235255590925
85.02840424 1.0
85.04407501 0.0043548087272300045
87.04399109 0.031127908902613036
91.03903198 0.08502193812212855
97.02841949 0.20143763892948682
99.04408264 0.045370187973839245
99.07194519 0.0037803087177726066
103.0390854 0.006327240827783214
109.0283356 0.08119841135532303
115.0393372 0.005456641514154058
127.038887  0.316560123557454
144.6941071 0.0033798189473194474
145.0362091 0.007992547091935358
145.0398712 0.008021039388769403
145.0494385 0.38290116689434955
162.0755615 0.0033129055102233598
163.0597687 0.035241165126992206
215.3331146 0.024858240270225818
256.1022949 0.0031436204716763145
304.2439575 0.004329014637145169
331.5411377 0.0033083881767806255
337.4524536 0.0037620294847677655
338.6384277 0.0034014057625808827


