PRECURSORMZ: 373.05650602799994
COMPOUNDNAME: casmi2022challengepriority84
FORMULA: C18H14O9
SMILES: CC1=CC(=C(C2=C1C(=O)OC3=C(O2)C(=C4C(OC(=O)C4=C3C)O)O)CO)O
INCHIKEY: DFPWLQCOSHYAIG-GOSISDBHSA-N
PRECURSORTYPE: [M-H]-
PRECURSORINTENSITY: 44858603.12305
IONMODE: negative
CHARGE: -1
PARENTMASS: 374.06378202799993
NUM PEAKS: 70
56.60393143 0.002951573303988511
56.75782394 0.004548098371615827
59.76689911 0.0052864791514921185
62.30496597 0.0031369949464584777
63.75628662 0.011735916148829581
66.76567078 0.005489040606953656
68.02490234 0.0034359401090465376
77.76247406 0.014719248867574383
77.76712036 0.0041848937643642085
85.39065552 0.002866958504750091
97.43875122 0.0034670507629160816
121.028183  0.0349093454167605
135.0437775 0.031720817979925195
149.0231781 0.0663796003801487
151.0390167 0.004945509057205605
176.7019958 0.003138339037701533
177.0184479 0.004710138607493705
183.0814972 0.004828179044993586
193.0132904 0.06983522717042043
195.0809784 0.0357092483199945
196.0524292 0.004494960037459923
197.3003693 0.0031373276772895028
208.0508881 0.005819687052753237
211.0406342 0.003529149063021791
211.0756073 0.06724036861663481
216.4371185 0.015429887411492057
216.4643097 0.006952018246044085
222.0687866 0.025747400290513325
223.0758972 0.17694157972191657
223.1007996 0.004862671927030656
224.0478516 0.0351555790784691
225.054718  0.016752724990994942
226.9682922 0.004450221229774828
227.0131378 0.0062913644802689945
227.0343018 0.38306575505304824
227.0705566 0.01591303955631559
229.0493927 0.004534697284110671
237.0561676 0.007287653084958992
238.0628357 0.021522327672459093
239.0010986 0.002910309221072551
239.0309296 0.004877543646268658
239.0484924 0.004548832242222898
239.0707245 0.47065707694788184
239.129837  0.004051894249724742
240.0430908 0.007184538001879366
241.049942  0.015089677202481803
249.0548096 0.012179924245694324
251.0354614 0.00322900947383082
252.0426941 0.11862874158003435
255.0046082 0.01533857913421372
255.0296783 0.8082178749641628
255.0650024 0.09118951164178672
255.0932312 0.006090276225890349
257.0810242 0.02259336894740265
265.0517273 0.007532658597345356
267.065918  0.5359034809061115
268.0393372 0.006315058384060525
269.0442505 0.012718833855877468
271.0596008 0.007285064464787119
283.0609741 0.12069637978167348
283.0951538 0.006140602727589122
285.0765991 0.0933756790997721
295.025238  0.013188344036628984
296.0321655 0.031014835098291824
299.0547791 0.0055485249145557506
301.0732117 0.00655977677157919
310.9512329 0.0036836415119692167
310.9670715 0.0038627130057992
311.0556946 1.0
355.0459595 0.03332302098998661


