PRECURSORMZ: 485.2169939839998
COMPOUNDNAME: casmi2022challengepriority158
FORMULA: C27H32O8
SMILES: CCCCCC1=CC2=CC(=CC(=C2C(=O)O1)OC3=C(C(=C(C=C3O)OC)C(=O)O)CCCCC)O
INCHIKEY: WAVKNSMRCWYDDL-UHFFFAOYSA-N
PRECURSORTYPE: [M+H]+
PRECURSORINTENSITY: 13699023.94238
IONMODE: positive
CHARGE: 1
PARENTMASS: 484.20971798399984
NUM PEAKS: 113
51.90954971 0.02502026899159311
51.91268539 0.01387048405936994
57.03323746 0.0028141212698961256
61.79028702 0.0024774047832326063
64.05852509 0.002602624995699038
71.0854187  0.0035332907628219294
71.80155182 0.0023932901787481493
78.22557831 0.0031219709262309964
81.0697937  0.018180809854160606
85.0282135  0.0037723395075271093
91.0541687  0.005592116288873939
91.91215515 0.0025570018156713197
93.06967926 0.003945466755577473
95.0853653  0.013689358998171627
99.08002472 0.0029452901244934656
105.0698318 0.005456177902887136
109.0642319 0.003911317416432956
116.7960358 0.008066617430271676
116.805603  0.006674671406589927
121.0647278 0.025894653866983697
123.0436478 0.016727961717873704
125.0592575 0.005764437098489724
125.3836365 0.0023769614857947325
129.0691681 0.0028618806269684175
131.085495  0.04439231734265522
133.0649872 0.02180048980761591
133.1008148 0.006106546062846598
135.0329895 0.005093814019582813
135.0439453 0.09787480871988177
135.0801392 0.005726831113097933
137.0597229 0.05178172030276055
138.0675049 0.010750209434673747
141.0697479 0.003024719043590758
145.064621  0.0033677920263062086
147.0445099 0.004754821682760245
147.0804596 0.003455531390379275
149.0596161 0.09087819268049309
149.0960236 0.005550471369922131
150.0310516 0.03653262510477464
151.038681  0.014431080116370364
151.074646  0.004585605281914562
152.0825043 0.004435300999968828
158.0725098 0.012128344462824162
159.0802155 0.026471141901453
161.0596008 0.0716219933817915
161.0955048 0.006153790125140638
162.0671539 0.005382056772807424
163.0389862 0.020310252252998543
163.0752258 0.02901396278797453
163.1114197 0.035625311923982175
164.0474396 0.008478527980909254
165.0547333 0.0037521317782895193
165.1272888 0.006101848580031969
166.02565   0.004491148757578576
169.0652008 0.004190890324480759
173.0959625 0.05356385654910658
174.0671082 0.004405932989641238
175.0748596 0.016320768452875386
176.0463867 0.004487925531860432
176.0830078 0.017087759660704367
177.0362091 0.005569503991116901
177.0544891 0.35721909260066426
177.0730286 0.005491334658069877
177.0912933 0.021664797482259097
178.0626984 0.0039133419392533494
178.0992584 0.004240902990198886
181.049118  0.015978130710966102
182.0566711 0.005679297592494258
186.0670166 0.005321962362646977
187.0744934 0.005615258628193516
189.0904694 0.017224887901518365
190.0625763 0.0037041280459340215
191.071106  0.01593687679246742
191.1064758 0.4735025734301547
192.0415039 0.12067762481840051
192.0561066 0.0024439019852468247
193.1220703 0.003212482685758361
197.0608063 0.003137924629525701
201.0907898 0.10155010511710114
202.0983276 0.014989659655947646
205.0499115 0.0035930451542694067
212.0825806 0.015891704442703547
215.0703888 0.017620964619150997
216.8366241 0.010285415230077071
219.1013489 0.2204013600775486
219.1259766 0.004567157054716053
219.1372223 0.0031858301904312642
220.1096039 0.0032124371813952815
230.0934601 0.047523526497264774
231.0992432 0.003439061760301341
248.1037445 0.07481813220647542
249.1117706 0.10642589425039496
254.6901855 0.0027379821477148156
261.112793  0.004046095441161227
309.111908  0.003739511901595422
351.1244202 0.005488248788114363
352.1291504 0.003063987202245087
353.1387329 0.005848627332910988
355.1558228 0.00987957951191063
365.1390686 0.01396363570396099
369.1325378 0.004264249256478931
370.1412964 0.0034145340659280047
371.1488342 0.0342981856014973
379.1149292 0.0030277490864341824
383.1485596 0.027131614136699584
397.1260376 0.019301708717821605
409.2047424 0.004818599839646712
411.1437988 0.06258798858472829
435.1813354 0.003651683003474565
441.2272034 0.010858021068236967
449.1955261 0.02351941543760393
467.2060242 1.0
467.3616333 0.01071295990012608


