PRECURSORMZ: 581.1875764639998
COMPOUNDNAME: casmi2022challengepriority145
FORMULA: C26H32O12
SMILES: COC1=C(C=CC(=C1)CC2COC(=O)C2(CC3=CC(=C(C=C3)OC4C(C(C(C(O4)CO)O)O)O)OC)O)O
INCHIKEY: VXYKGOAXVHSLDD-ATALQWSYSA-N
PRECURSORTYPE: [M+FA-H]-
PRECURSORINTENSITY: 26672447.50391
IONMODE: negative
CHARGE: -1
PARENTMASS: 536.1893754639998
NUM PEAKS: 27
56.6479454  0.04809883121794082
56.65150452 0.04194866757649477
84.09449005 0.05830898770535638
99.00714111 1.0
99.9250412  0.0475721145808255
108.020195  0.08546450306685159
109.0278168 0.1988560230600135
121.027977  0.2239237158267139
122.0355835 0.4546164868821483
123.0437851 0.22763413125284782
135.0437317 0.19668691304671002
136.0513611 0.10304960130597234
147.0435944 0.2742591551408304
148.0513763 0.09430196786783082
163.0387878 0.5889381792666409
163.4274902 0.044330882568413214
164.0464325 0.7977034615781222
176.0465546 0.08849307298329608
177.0551147 0.07348627141309995
179.0700378 0.3797063569972173
192.0417786 0.06457779314826549
206.0572815 0.05202281757213701
206.1846008 0.05091502506678855
220.7723999 0.07652816471573172
332.446167  0.04885371084354697
409.4984131 0.05072429950175059
567.6965332 0.05584902835607841


