PRECURSORMZ: 542.369838352
COMPOUNDNAME: casmi2022challengepriority95
FORMULA: C28H51NO6
SMILES: CCCCCC=CCC=CCCCCCCCC(=O)OCC(COCCC(C(=O)[O-])[N+](C)(C)C)O
INCHIKEY: MBBOPONQLZPJRT-UHFFFAOYSA-N
PRECURSORTYPE: [M+FA-H]-
PRECURSORINTENSITY: 4616050.697266
IONMODE: negative
CHARGE: -1
PARENTMASS: 497.371637352
NUM PEAKS: 14
57.03328323 0.16718732587345664
59.01263428 0.0683011840028948
72.39450073 0.03582509061098197
81.1813736  0.03851796613042893
83.01236725 0.04762367024163011
91.03842163 0.14808997544054053
101.0229797 0.20098735320620814
175.0605621 0.3413557202392234
193.0703125 0.06207865544932562
221.29216   0.053921147103679866
231.7234192 0.03678787586929163
279.2328186 1.0
335.1775818 0.042424304709491295
442.6584473 0.04040316733112862


