PRECURSORMZ: 409.09874292800004
COMPOUNDNAME: casmi2022challengepriority190
FORMULA: C17H19FN4O5S
SMILES: CN1C(=O)C(=C(N=C1N2CCCCS2(=O)=O)C(=O)NCC3=CC=C(C=C3)F)O
INCHIKEY: VNIWZCGZPBJWBI-UHFFFAOYSA-N
PRECURSORTYPE: [M-H]-
PRECURSORINTENSITY: 19208543.25
IONMODE: negative
CHARGE: -1
PARENTMASS: 410.106018928
NUM PEAKS: 64
50.57590866 0.0023280085049250865
54.11913681 0.0018952410708858707
63.96112442 0.004748244273447349
64.96914673 0.0025088238515179836
67.02871704 0.0021520986705438555
68.03333282 0.002139450427360635
71.24636841 0.002173480327735602
82.01583862 0.0036009833489266192
83.0236969  0.011881036600514313
86.02321625 0.0033228380397178838
86.28186035 0.014866515887929508
86.28806305 0.007504363300111796
97.03904724 0.0039893100386131
102.9377518 0.0022441322574655747
109.0755386 0.00923887957258655
112.0497437 0.0027206491464020783
113.033989  0.002212948454418877
120.0239563 0.003223616116145921
124.0500641 0.0020309786874717537
125.0344543 0.009946086029775167
131.0612793 0.002152076783840621
137.0595398 0.005730545941924418
137.0705414 0.05199828738612307
138.0662231 0.009203295922763229
138.101944  0.004492231789602214
139.0373535 0.06483417642565854
139.0865631 0.0026748018716517686
140.0450897 0.011863012693957486
141.0292664 0.01023765821195711
144.0886383 0.0026440851225920095
149.0505981 0.002732232580827203
151.0741425 0.012835656131976986
165.0171967 0.011857106587748996
165.0530243 0.059875624060110634
166.062027  0.0217932808316749
166.0972748 0.07772356482692822
179.0688477 0.018630957808382823
192.0774689 0.012105775050281603
194.0768585 0.008100775962089917
194.0924377 0.4408326263515246
194.1461487 0.0030895369335225665
206.0732727 0.010186891797425265
207.0566254 0.004497340476492567
215.9357605 0.0094444048006047
215.9653015 0.0050212230818328565
220.071701  0.01895928643731384
231.0769653 0.0027711940096837107
232.0897827 0.003205454901498252
234.0634766 0.002183972730654446
258.9707947 0.0022883198593833215
260.1202698 0.07562259328856222
274.0637207 0.016931353718195728
288.1156006 0.009843539805058026
290.0815125 0.029265815909865767
291.0889282 0.011158674633756993
302.1178284 0.008933342021941544
313.1101685 0.0028614797575250827
317.1048279 0.0855656911639167
330.1123657 0.023286679141261573
343.1202698 0.03658739880909905
345.0358887 0.011424679842957535
345.0858459 0.006129327455473361
345.1361084 1.0
345.2633057 0.005986788855588064


