PRECURSORMZ: 215.965466532
COMPOUNDNAME: casmi2022challengepriority162
FORMULA: C7H6BrNO2
SMILES: COC(=O)C1=NC(=CC=C1)Br
INCHIKEY: SGNCOKUHMXLGAH-UHFFFAOYSA-N
PRECURSORTYPE: [M+H]+
PRECURSORINTENSITY: 65589718.37109
IONMODE: positive
CHARGE: 1
PARENTMASS: 214.958190532
NUM PEAKS: 49
50.48543167 0.002247822450343396
50.48833466 0.001067248778421735
53.03892517 0.0029302797144849482
53.69619751 0.0003953660240560659
56.85519409 0.00041996394482582145
63.77219009 0.00041580220791892025
66.03416443 0.0009233811710174392
76.01821136 0.012456065787704466
77.03851318 0.0010034922780279949
77.08411407 0.0004146782422360742
78.03501892 0.00043867163192537126
88.30031586 0.0003971303763629143
89.41721344 0.0004282480767870228
94.02870941 0.04549692564746938
95.03752899 0.0007355429104813063
95.04914093 0.005598562845076397
105.0445862 0.0037494094548717986
105.9287415 0.0010096870166194317
106.0480194 0.00046682950685279903
112.0139847 0.0010959604929869427
112.0216064 0.0013476159207839573
112.0391998 0.3749464502928426
112.0533981 0.0023628445910626452
112.0580673 0.004018344048269263
114.0431976 0.000905435993149025
128.932785  0.0029980387012593433
142.9955597 0.0007282546414306397
155.904953  0.000559766210496342
155.9441376 0.15889929684413726
155.9742889 0.0018234422426018017
156.9521637 0.0005049034117515158
173.9065399 0.002400238182191999
173.9195251 0.004432527743569084
173.9260559 0.0035325995079941506
173.9547272 1.0
173.9827881 0.00780299850998917
173.9911652 0.010114877639570601
175.9590912 0.0022276938759981614
183.9389496 0.012812485667961587
196.970459  0.0029751300371903366
201.9495544 0.21882677412394763
201.9949799 0.001954326936857729
202.0037231 0.0006603873500477908
203.9547882 0.0005495886818980622
215.9653168 0.01363606566913942
220.836792  0.0006694159235070446
267.0048218 0.0004347852879866769
391.0135193 0.0005171397458108754
426.1090088 0.00048742382155139886


