PRECURSORMZ: 265.144533184
COMPOUNDNAME: casmi2022challengepriority232
FORMULA: C15H22O4
SMILES: CC1=C(CC2(C13CCC(C3C(C2)O)(C)O)C)C(=O)O
INCHIKEY: JVWMEYMYQAAGMM-VDEZILSRSA-N
PRECURSORTYPE: [M-H]-
PRECURSORINTENSITY: 10525009.35937
IONMODE: negative
CHARGE: -1
PARENTMASS: 266.151809184
NUM PEAKS: 35
50.13464355 0.0025434685095725024
52.94059372 0.002502686795830931
55.28731155 0.010391491717597203
55.29040146 0.0053835605523147615
57.03318405 0.042284241025395304
58.46988678 0.0024455738987249603
63.65805054 0.0021414689515897637
66.28442383 0.011302873877035335
66.28855133 0.007167492491968576
69.03325653 0.0031572873954765074
72.93717957 0.0024659264211985845
79.05384827 0.00456334756840976
97.06475067 0.002649418455074279
111.0801468 0.004242124791741268
121.0649109 0.0027044756549211243
126.3779526 0.0025896124144479953
127.9703979 0.002258994911458509
133.1012421 0.0025927645971620546
133.2072754 0.002067377689138295
141.5858765 0.002097601744815472
149.0956573 0.03574949730973241
151.1104889 0.002341556006839541
157.2874451 0.0022147815998414372
167.1064453 0.011003651393435426
185.1324158 0.005734168165604116
203.143219  0.07515370598823726
217.2486725 0.005126902149379029
217.2728729 0.004826899834614263
219.1379852 0.009438918700788272
221.1018219 0.01064982709828753
221.1538086 1.0
221.2195587 0.005693556583568011
265.0769348 0.009893664442103994
265.1440735 0.9567680450556033
265.2308655 0.004727133044827865


