PRECURSORMZ: 319.22677081999996
COMPOUNDNAME: casmi2022challengepriority157
FORMULA: C20H30O3
SMILES: CC1CCC2(C(C1(C)CCC(=CC(=O)O)C)CC(=C2C)C=O)C
INCHIKEY: JIKPDGHCTOSDJA-UHFFFAOYSA-N
PRECURSORTYPE: [M+H]+
PRECURSORINTENSITY: 82067495.36719
IONMODE: positive
CHARGE: 1
PARENTMASS: 318.21949481999997
NUM PEAKS: 135
54.35987473 0.008547569305525082
55.05453491 0.03222244234219119
56.86989594 0.008198982357420337
57.07010651 0.01968116393273363
67.05448151 0.0777743311436057
69.03334808 0.01984357859143296
69.06985474 0.1188631957977879
71.04932404 0.010092172637868952
79.05419159 0.050613741078688226
81.06993866 0.28829947214227636
81.09797668 0.009768286269246158
83.04904175 0.014398408360543603
83.08563995 0.10005363111908419
84.07614899 0.007831443671515042
85.06472015 0.01749137552753507
85.10137177 0.010074152556044552
91.05451202 0.03321194326497425
93.06977844 0.09708758050152937
95.04923248 0.09588281945717125
95.08551788 0.39506745995895876
97.06465912 0.09374839642244105
97.10118866 0.05419439748073771
99.08039856 0.05655525728224255
105.0699081 0.07629470980731257
107.0771103 0.01922652226940103
107.0854645 1.0
107.0923996 0.017252863531355266
107.0939178 0.01942435921427926
109.0646591 0.03835092536427345
109.0928879 0.015783500896970948
109.1010895 0.3390409767303796
111.0802917 0.03678154885587806
111.1168671 0.01297601570667114
113.0959854 0.011060283384742459
119.0854568 0.24269966315191718
121.0648727 0.01789846643779926
121.10112   0.5193354413226127
123.0804825 0.13750865351109276
123.1167068 0.2853355703831808
125.0959778 0.04569775305550895
131.0849762 0.04567178284268807
133.06427   0.03205937754087994
133.10112   0.2889453686615128
135.0802917 0.9409564420582579
135.0895386 0.017845872643031373
135.1164703 0.2557603861492198
137.095932  0.21460001548726818
137.1323547 0.21847313604274485
139.1117249 0.01207075503658867
143.0852814 0.04159743427590568
145.1009979 0.11441791102564433
147.0799561 0.02073429010234503
147.1167297 0.2756381916033194
149.0960236 0.3986641456835693
149.1096954 0.014007633932604572
149.1324615 0.17027362131048102
151.1115417 0.13498714556741478
151.1481018 0.013640593743143657
153.0905914 0.012874144167107623
153.128006  0.015000696927067873
157.1010742 0.08731408179858807
159.1166992 0.23775906973142497
160.5642395 0.007795052624446653
161.0953979 0.06641842081488843
161.1322021 0.242168398229289
163.0765686 0.009203146173999458
163.1115265 0.1203605048849425
163.1477661 0.0842262754410645
165.0914459 0.016499174012364004
165.1271362 0.11563954673928474
170.1084747 0.010245555476685209
171.1168823 0.12503245873288335
173.0952759 0.014583458629634888
173.1325684 0.1691829949795439
175.1118164 0.08471518913826259
175.1479034 0.4912479382574242
177.0903931 0.015567721306609193
177.1271973 0.1373724300814372
177.163208  0.045690790237858624
179.1424255 0.010406505297936321
183.1169434 0.014216944361989082
185.1322784 0.26893976743285625
187.1128693 0.028569954054437748
187.148056  0.14458860653304595
189.128006  0.07130673179923339
189.1633911 0.10308963901759095
191.1065216 0.284369552030768
191.1425781 0.06627604119613334
191.1786194 0.010389894396190131
191.8695374 0.009726701340939304
195.1167603 0.013251276892995883
197.1313019 0.018701295768103973
199.1478882 0.19921204651342875
201.1278687 0.03040190751519688
201.1634521 0.14638954351277053
203.1429901 0.4035396925777267
203.1777954 0.015393938025115187
205.1231537 0.013990039750654982
205.1588745 0.15638864008879366
209.1308899 0.030906934424325336
213.1267548 0.035468686679658766
213.1634064 0.11002330833860331
214.263382  0.008321712504678445
215.1791229 0.08929447104526154
216.7354736 0.022371699275970214
216.7578888 0.017439665797658842
217.1243591 0.010191067718080095
217.1591797 0.06677637675361046
219.1372528 0.01895974439554483
221.1542969 0.010959379799439877
225.1634216 0.011545338977582179
227.1425171 0.0430201915258831
227.1797485 0.04415611811623195
229.194519  0.15554107352580565
231.1368408 0.01901182517455442
231.1745605 0.01414163106745996
231.2104645 0.03373661319257128
233.152771  0.012033559780855156
239.179657  0.017821070428352025
241.1595154 0.01335396635390989
241.1948395 0.037289876489036304
245.1529388 0.015873604532607152
245.2255707 0.17316164836157608
253.1945648 0.009344664313462307
255.2103882 0.37564056631777293
257.1902161 0.03876144121936425
259.2038574 0.013773401907515196
265.1949158 0.059300865996412114
271.2037048 0.029922260366790136
273.2210388 0.4535371113663642
283.1736145 0.012718180923557426
283.2056274 0.16806413019630112
301.2164917 0.18353283946155932
304.245575  0.009425629654246738
317.6712952 0.008562658099195953


