PRECURSORMZ: 148.075689908
COMPOUNDNAME: casmi2022challengepriority225
FORMULA: C9H9NO
SMILES: COC1=CC2=C(C=C1)NC=C2
INCHIKEY: DWAQDRSOVMLGRQ-UHFFFAOYSA-N
PRECURSORTYPE: [M+H]+
PRECURSORINTENSITY: 6372890.088867
IONMODE: positive
CHARGE: 1
PARENTMASS: 147.068413908
NUM PEAKS: 26
59.02022171 0.0008260885530739039
62.30746078 0.0008549941603973838
72.07491302 0.0008784726021100713
72.10056305 0.0007887182889873399
87.95098114 0.0008051366531595143
92.04955292 0.004924682094804975
92.4148941  0.0009018829172422081
105.0572586 0.0015265040692019774
116.0500717 0.0009117170505583446
117.0571289 0.04632363467030524
118.064827  0.007559094065560054
120.0442047 0.003913636017401121
120.0807037 0.0014301411470571048
121.064682  0.003937554966906288
133.0520477 0.24615002463426916
133.0807648 0.0009166729049575064
134.0595703 0.011591561737193954
144.0545349 0.002826767040146118
147.0672913 0.0009471476913693751
148.0387115 0.011841917566198068
148.0497742 0.004722122589644164
148.0527191 0.007541154003030034
148.0754242 1.0
148.0975037 0.00680093839052496
148.1042175 0.00610798240425242
148.1108246 0.007254450895270878


