PRECURSORMZ: 350.21733323599994
COMPOUNDNAME: casmi2022challengepriority70
FORMULA: C16H28O7
SMILES: CC(=CCC=C(C)C(CO)OC1C(C(C(C(O1)CO)O)O)O)C
INCHIKEY: JPFNJNIYHKVTDX-ZMAWNPEZSA-N
PRECURSORTYPE: [M+NH4]+
PRECURSORINTENSITY: 9599490.625
IONMODE: positive
CHARGE: 1
PARENTMASS: 332.18351023599996
NUM PEAKS: 50
53.03873444 0.011648958596879642
55.01805496 0.014918128156497162
55.05448914 0.07357450349012382
57.03366089 0.03675373253841583
57.07018661 0.02500944186239526
59.04937363 0.05111763415704472
61.02853012 0.07379676255754353
67.05432892 0.051245878576747866
67.47941589 0.009229319497128168
69.03356171 0.09363047353170798
69.06993866 0.2045514761522441
71.04901886 0.021333389784202822
73.02816772 0.036070002762043224
79.05439758 0.07862973223531823
81.03346252 0.05125520249251028
81.06987    0.13083311383957943
83.04912567 0.06672297999186508
85.02840424 0.5323601122638413
85.06471252 0.048834814954646165
87.04382324 0.017953192586666937
91.03878784 0.033940196772206804
91.05421448 0.10342466812775251
93.06989288 1.0
93.07582855 0.022556518006490396
95.04898071 0.019156176101204774
95.08556366 0.18698847952117506
96.09220123 0.009179301287899504
97.02820587 0.10837945828172056
97.06488037 0.11637311637424173
97.51729584 0.009030805755991892
99.04411316 0.018124312591154535
105.0697632 0.035603540061053505
107.085495  0.8536891571393681
109.0282822 0.045416750395550445
109.0644684 0.009963659921090653
109.1010513 0.13058309583378155
119.0598068 0.00929335063198042
119.0851364 0.04455142969497717
120.0934525 0.009244488444028885
123.1170654 0.016346818964168
127.0389023 0.08933251987909338
135.0836945 0.008675973952074107
135.116684  0.5245485392450215
135.1287537 0.015401031247446293
145.0496521 0.01684326247282394
153.1271973 0.07327100913032458
215.6661682 0.05681351510571019
246.4644012 0.0100077366137857
364.0571899 0.009548508513972268
374.6479187 0.008563306062436904


