PRECURSORMZ: 287.11386630799996
COMPOUNDNAME: casmi2022challengepriority62
FORMULA: C14H14N4O3
SMILES: CC1=NC=C(C(=C1O)C=NNC(=O)C2=CC=NC=C2)CO
INCHIKEY: BQYIXOPJPLGCRZ-REZTVBANSA-N
PRECURSORTYPE: [M+H]+
PRECURSORINTENSITY: 13719133.7627
IONMODE: positive
CHARGE: 1
PARENTMASS: 286.10659030799997
NUM PEAKS: 64
51.0232048  0.002936364052184026
53.03873825 0.021858839562144867
61.12432861 0.002075146042223017
65.03862    0.02974448507049308
67.05426788 0.10788556990975859
67.05751801 0.0017394873360340752
68.04945374 0.004066849753851032
69.6650238  0.0018075762204809815
78.03375244 0.030926481412611947
79.05402374 0.013770642504729497
80.04924774 0.014203729474239321
81.03314972 0.0028856051374620308
81.24958801 0.0020759781301831707
82.06505585 0.035950686222030626
92.04934692 0.056450997440355685
93.05730438 0.00512024406484152
94.02839661 0.002975846887313605
94.06501007 0.36463356198643154
95.04892731 0.008312428980701985
95.06040192 0.007748028190490996
96.04423523 0.01271366965394287
105.0446472 0.004098010547515226
106.0286255 0.013311300516836575
106.0649948 0.09761204380216984
108.0442581 0.0031148454673118144
109.051857  0.0024163458694219917
109.0756683 0.017880248450675068
110.0597458 0.0265804021488044
112.0756531 0.0031677125834819113
116.2755127 0.0025721554534170214
119.0601959 1.0
119.0801468 0.0065487928912935905
119.0851593 0.0026275515592915325
120.0441284 0.014629938211413712
121.0394897 0.03243603962734307
121.0757828 0.0024189497993266224
122.0598221 0.2435690634509621
122.0702515 0.004486819670941399
123.0552063 0.023559916269480764
123.0666962 0.003499278237956996
124.0392151 0.0025105315651624644
126.6339645 0.002070354323215628
134.0598145 0.004134330402718892
135.0549164 0.03464130315807779
137.0706635 0.07166954503132855
138.054657  0.012974515771204264
138.0657196 0.0040234673172921285
147.0549622 0.13560364408005537
147.0682983 0.0042873040713831525
148.0390778 0.05316038912502639
148.0624847 0.0410946249452344
149.0490112 0.0028659711922775027
149.0707245 0.1534445270438215
150.0546875 0.5372947423932204
152.0700684 0.009857255176817913
163.0492096 0.003535421102610179
163.073822  0.003065253063614275
164.0578003 0.01312918227509023
165.0655823 0.4681795869531012
168.0653076 0.05971316953209282
183.1476135 0.0022554821788966215
220.0920715 0.0035853165590555855
230.3413544 0.002301577760535831
283.8317261 0.002302450513720901


