PRECURSORMZ: 719.2545612640002
COMPOUNDNAME: casmi2022challengepriority2
FORMULA: C35H42O16
SMILES: CC1C(C(C(C(O1)OC2=C(OC3=C(C(=CC(=C3C2=O)O)O)CC=C(C)C)C4=CC=C(C=C4)OC)O)OC5C(C(C(C(O5)CO)O)O)O)OC(=O)C
INCHIKEY: UYALDZZEAZIEME-MYTBKXFISA-N
PRECURSORTYPE: [M+H]+
PRECURSORINTENSITY: 13528180.71094
IONMODE: positive
CHARGE: 1
PARENTMASS: 718.2472852640002
NUM PEAKS: 60
50.65100861 0.004742746752738213
52.45254517 0.004193524964736185
53.03885651 0.006966302276909017
55.01812363 0.010343823613006661
55.05448532 0.026182581815206
57.03388214 0.0361937957307086
59.04931259 0.017228673361777996
61.02862549 0.09377245612927787
67.05413055 0.008191256880680068
69.02909851 0.008962201072246614
69.03359222 0.6206774338494379
69.03674316 0.012744920800034367
71.01267242 0.0070770555165312705
71.04923248 0.20329791069553113
73.02831268 0.025766509712247164
78.26439667 0.008484720217677977
78.26875305 0.005912264115398396
81.03349304 0.05270552285488494
81.92404938 0.004882107933631763
83.04917145 0.3969559298100444
83.0537262  0.0050885612692201905
85.02843475 0.6135459891528221
87.04410553 0.27519130232290623
87.04886627 0.005182312109168888
91.03888702 0.028772903701958032
92.27946472 0.006961116968420312
95.04914856 0.05049012308288702
97.02849579 0.17216181124304172
99.04411316 0.048703932111983886
101.0595856 0.008512672261485223
109.0284195 0.05710042958977784
111.0440598 0.27478958684361904
111.0528107 0.00905566349230043
113.0233078 0.005204168275068522
113.0596695 0.05100725151736738
115.0389633 0.022349533284488316
116.9258041 0.004224021228244196
125.0233231 0.009233305149053702
126.2324829 0.004065271543325028
127.0388947 0.1422663060646778
128.6033478 0.004558990156740865
129.0545349 0.5313207281827518
129.0707855 0.006535724809357637
133.0491791 0.03660133085476463
145.0497284 0.06103595436534554
162.7486267 0.004958679822183654
164.9963684 0.005315243057563766
173.0807648 0.021888601419769338
179.9496155 0.004455439602466633
189.0759888 0.0330582696232222
221.1672058 0.005169012295989421
313.0704346 0.7607558834608735
325.070282  0.029767630483835267
355.0821228 0.02257997921806853
361.1105957 0.005160687491635511
369.0095825 0.004531019051597154
369.1330261 1.0
405.0971375 0.04993697184723844
423.1092834 0.0067351670104057485
733.0827637 0.005153102954595651


