PRECURSORMZ: 144.13829016399998
COMPOUNDNAME: casmi2022challengepriority188
FORMULA: C8H17NO
SMILES: CCC(C)C(CC)C(=O)N
INCHIKEY: QRCJOCOSPZMDJY-UHFFFAOYSA-N
PRECURSORTYPE: [M+H]+
PRECURSORINTENSITY: 123563809.7461
IONMODE: positive
CHARGE: 1
PARENTMASS: 143.131014164
NUM PEAKS: 44
53.00236511 0.0029268011586514125
53.99748611 0.0032837939103744695
55.05448151 0.012106331840410383
56.04970169 0.004745204713458801
57.03371048 0.03299615337025986
57.06212997 0.004022919017307675
57.07008362 0.743252565383358
57.0767746  0.004423215247815499
57.0791626  0.002504047981194171
58.06529236 0.023950339933848194
67.05439758 0.0034990865558888456
68.04967499 0.0041556461403776035
69.03353119 0.015953834389764086
69.06993866 0.01533562737939053
70.05589294 0.007735874624654499
70.06512451 1.0
70.07430267 0.0038216420570757912
70.0776825  0.0036034585243315182
71.04551697 0.0027261189756643523
71.0491333  0.1530010334061062
71.08554077 0.08215643301307554
72.04427338 0.024648634228146095
72.08074188 0.020863614964026746
74.05995941 0.025085740365950696
80.33274078 0.0023603196787149875
83.08538055 0.0050670874242120054
84.0812149  0.002413408240338171
85.10115051 0.012712585822485098
86.06002045 0.015263682795380035
86.09630585 0.011129918767928251
87.06800842 0.006193990870941212
88.06258392 0.0061445410673439315
88.07563782 0.7785273467455891
88.0884552  0.004045300883894827
88.09293365 0.0024474021941259826
92.44450378 0.0025641512776012304
96.08128357 0.0026289130758607475
97.80476379 0.0033811180030921097
112.2872086 0.0024627634602759564
114.0916061 0.012051408209151666
116.1070557 0.004574068999284634
126.1275635 0.004509294296587853
144.1381226 0.3364620571628843
163.4372253 0.002779217802180814


