PRECURSORMZ: 652.4419134359999
COMPOUNDNAME: casmi2022challengepriority83
FORMULA: C36H58O9
SMILES: CC1CCC2(CCC3(C(=CCC4C3(CCC5C4(CC(C(C5(C)C)O)O)C)C)C2C1C)C)C(=O)OC6C(C(C(C(O6)CO)O)O)O
INCHIKEY: HZKJZYRLLBKBHA-DHRWMAOJSA-N
PRECURSORTYPE: [M+NH4]+
PRECURSORINTENSITY: 16362913.63281
IONMODE: positive
CHARGE: 1
PARENTMASS: 634.408090436
NUM PEAKS: 130
50.79304123 0.0060595999184100665
50.79540634 0.005640792421510024
51.28754807 0.008042790972914951
51.29001617 0.00528742933755396
55.05440521 0.021326500326303965
57.03360748 0.004334402831988707
57.06999207 0.009047563912041555
61.02848434 0.007872433068491915
63.47847748 0.0036533534377088677
67.05419159 0.02257709596052212
69.03346252 0.018358482489193893
69.06990051 0.04782831659071572
71.04908752 0.0044583952320180475
73.02816772 0.007093123276090445
77.03935242 0.004541229443182823
79.05416107 0.038730795695923345
81.03318787 0.0048959587434414305
81.06465912 0.00466606366430397
81.06987762 0.08678776390935385
83.08554077 0.03907120310132949
85.02302551 0.005811617852424378
85.02845764 0.1159556601068978
85.06404877 0.00364130328415277
91.03842926 0.005675288221168854
91.05451202 0.007120933720329927
93.06989288 0.07201148580150808
95.07850647 0.006195291417015905
95.08550262 0.3253096178058095
97.02858734 0.043870940518329155
97.10098267 0.024092511723005312
99.04425049 0.004897693786198252
99.08003235 0.007997867418647341
105.0699234 0.062107465851471366
107.0854492 0.3796328583471241
107.0916214 0.006058811411742743
107.0940704 0.006576859745359723
109.0286484 0.0047156362363840534
109.0930405 0.008407414610130457
109.1011429 0.20114543049865574
109.1095734 0.0073398624324680145
111.0802155 0.007923269875949957
119.0854797 0.25162128344545626
119.0952148 0.009446039748120218
121.1011124 0.2559745226737159
123.1167831 0.06551924342975561
125.0960541 0.005297525175694652
127.0386429 0.01888996879184663
131.0853729 0.020374734501821617
133.0896912 0.008616695325293331
133.1010437 0.27412059612136436
133.1099396 0.004500680952608122
135.0800781 0.01689165120479094
135.1166382 0.13767582758160188
137.0962524 0.007620758363446341
137.1329956 0.015259630507656734
145.0492096 0.01726113602388752
145.0883179 0.007704830562887691
145.1009674 0.13767603755841204
147.1166534 0.216274942095395
149.0957336 0.02517882237585681
149.1322784 0.130434304835374
151.1117401 0.006250442044930558
151.1473694 0.005500777259784486
153.0906372 0.04241757727776544
157.100769  0.006569745687286296
159.1165924 0.1816812801194236
161.0967102 0.003974949873723418
161.132431  0.18189076698369433
161.1443481 0.004123567522890244
163.1116638 0.20650629594467587
163.1476288 0.12170904220337905
165.0911102 0.008670852937876597
165.1278687 0.0058717127780407935
167.1065369 0.026397488411379847
171.1167603 0.01909947315418485
173.1321259 0.05493190207073531
175.1116333 0.006178783083946209
175.1478882 0.17232739066297517
177.1265717 0.024543937805008815
177.1636047 0.40723910451329753
179.10672   0.007641112990481331
179.1429443 0.005763618465976617
181.1236572 0.005631348386384208
185.1322327 0.018394928776565917
187.128479  0.0066916087912250975
187.1479797 0.4170254937044753
187.1676025 0.00918798371657834
189.1254578 0.004464213886280927
189.1307068 0.005318606519346004
189.1635437 0.6699125348596501
191.1433868 0.005639282119557772
191.1791992 0.09920007059420358
193.1226196 0.005994968071976131
195.1376953 0.0040556050286681055
199.1480865 0.02313214122382324
201.1633606 0.07944482236381814
203.144455  0.01288703800552267
203.1793671 0.7018198410167581
203.2022705 0.006539983114889848
205.1112366 0.005888020976963304
205.1585846 1.0
205.1947784 0.07432904360042476
207.1746826 0.04393119511381163
213.1635895 0.04561622401921932
215.1790314 0.037855253640787914
217.1588593 0.0089090913143303
217.1959381 0.018901478145753582
219.173996  0.03235661278568395
219.2098846 0.006509737705192894
221.1902313 0.022542968167095626
223.1685333 0.032411337991832184
225.1651154 0.004326169717816364
227.1808624 0.006653110855437126
229.1945038 0.02041887337712423
231.1743469 0.018760045640559456
231.2110596 0.01511867154391469
241.1958008 0.006901401324862738
245.1909027 0.008310137931491901
249.1859894 0.023466564290139796
254.6515961 0.005228990166576003
255.2089996 0.004900588622742504
285.2576599 0.03518114865644238
287.5300293 0.003756668590083439
292.8768311 0.0042316347676313185
295.2429199 0.04913898309070746
313.2532349 0.04276196986804777
339.2663879 0.006121469257435209
391.3345947 0.01457642283611198
409.3438416 0.030552338924689157
437.3411865 0.020545782486282214


