PRECURSORMZ: 386.18389704
COMPOUNDNAME: casmi2022challengepriority64
FORMULA: C22H25N3O2
SMILES: CC(C)(CC1=CNC2=CC=CC=C21)NCC(COC3=CC=CC=C3C#N)O
INCHIKEY: FBMYKMYQHCBIGU-UHFFFAOYSA-N
PRECURSORTYPE: [M+Na]+
PRECURSORINTENSITY: 24494728.79687
IONMODE: positive
CHARGE: 1
PARENTMASS: 363.19467904
NUM PEAKS: 22
51.216362   0.016228313648561875
55.05446243 0.06038943046378498
58.68791199 0.015210117244512504
58.98520279 0.01572658658015994
70.06510162 0.18925813581530684
74.06006622 0.16138556583493818
75.41811371 0.020433135771590793
75.8707428  0.016215412001697342
80.54803467 0.015625630237161896
92.50784302 0.01943816069255268
105.8490372 0.01646478737473964
114.0912552 0.4992567718800856
117.0570068 0.10710498774789814
118.0650635 0.09070667582174183
130.0652313 0.43993715989051213
144.0806274 0.18404745153949817
156.0803986 0.030844568069693965
157.0884705 0.2743737555548302
172.1119232 1.0
172.1287537 0.030318873774206934
216.7221222 0.021202256438473698
221.1121826 0.028719051348081306


