PRECURSORMZ: 399.23772942799985
COMPOUNDNAME: casmi2022challengepriority193
FORMULA: C21H34O7
SMILES: CC1=C2CC(CCC2(CCC1=O)C)C(C)(C)OC3C(C(C(C(O3)CO)O)O)O
INCHIKEY: XHAUOHBDNZKIEL-OUEXDMKTSA-N
PRECURSORTYPE: [M+H]+
PRECURSORINTENSITY: 14495318.50391
IONMODE: positive
CHARGE: 1
PARENTMASS: 398.23045342799986
NUM PEAKS: 66
52.76131821 0.001503292916255475
54.79112625 0.008417903199882195
54.79454041 0.009080319144464015
55.05453873 0.0024091101541084013
57.03358459 0.0013970190560236152
57.07001877 0.0018394093833852122
57.3216629  0.001552724290049406
66.33625793 0.0015500920890796905
67.05425262 0.006108697680479935
69.03351593 0.0079253096337908
69.06987762 0.006345573506382288
71.01174927 0.0014674967694738752
71.04879761 0.001969920517166344
81.03349304 0.002748745566810162
81.06980896 0.007527349429672695
85.0283432  0.03165876054175395
93.06962585 0.015421612421360305
95.08547211 0.014704709435750127
97.02841187 0.006900117444176354
97.05797577 0.002495760203759283
97.06478882 0.05039021005904212
105.0697174 0.016133786102424767
107.0854187 0.025502138252483143
107.8111877 0.001464543565034297
109.0283203 0.0016400171711351992
109.0653915 0.0020328549239065374
109.1010666 0.04090614935002162
111.0803299 0.19803018903076441
119.0850143 0.015227306382667656
121.1011124 0.04610291409940111
123.080246  0.011280186154925105
123.116478  0.012660663775724074
127.0388489 0.006505826243759165
131.0854492 0.003432566506466294
133.1008911 0.006920547885908085
135.0802765 0.02832159527713663
135.1053772 0.00295608577550428
135.1166077 0.051598242856907665
137.0960388 0.009080983687606247
145.1011658 0.018880151076721273
147.1166992 0.05329544096976608
149.0960388 0.007604889356875792
149.132431  0.006458653574603177
151.1117249 0.002075888214842187
159.1167603 0.025327248526409385
160.1934357 0.0018099815002182332
161.1324005 0.012872859161899867
163.0957184 0.002266929389904485
163.1115417 0.08766097312632826
164.1201019 0.0016241187047613768
173.1324615 0.01063122927021154
175.1477203 0.003659606104469339
176.1197357 0.0032222295325021553
177.1271667 0.008651189723287621
177.1642151 0.0030866704267752563
177.5024719 0.0016331757846837758
189.1278229 0.009301127207642
191.1787415 0.0032689020078951725
201.1635284 0.025645459705815183
203.7578125 0.001710670639481858
204.1347809 0.0026105313116634755
204.1506805 0.09488903024376845
219.1741028 1.0
219.2153625 0.003001254096795819
219.2252808 0.010597352410871496
220.1261292 0.002185974128694579


