PRECURSORMZ: 407.13475304399986
COMPOUNDNAME: casmi2022challengepriority181
FORMULA: C19H22O7
SMILES: COC1=C(C=CC(=C1)C(C2COC(C2CO)C3=CC(=C(C=C3)O)O)O)O
INCHIKEY: PMALFGMVFUCPMK-UHFFFAOYSA-N
PRECURSORTYPE: [M+FA-H]-
PRECURSORINTENSITY: 24969549.82422
IONMODE: negative
CHARGE: -1
PARENTMASS: 362.13655204399987
NUM PEAKS: 40
70.77265167 0.010210773963297361
74.87350464 0.006885391347599217
78.2753067  0.008702211034706238
95.56435394 0.006671743662260979
109.0282211 0.01297533148704235
111.2757111 0.007529082423128349
123.0439911 0.038061926794377705
133.8083649 0.0075664308049264006
136.0152435 0.036494544694157006
137.0229645 0.1365112003445872
147.0439606 0.008009297192052848
148.5410919 0.008418575506931876
150.1931763 0.007707158814300033
151.03862   0.38708840786056786
159.0440521 0.0360531731088542
161.0592346 0.12023057251826293
171.043869  0.011533846231153076
173.0599213 0.03275350410432536
176.0464783 0.025666405104576098
177.0550842 0.0753311897888311
178.0620575 0.02725303778392648
179.0704041 0.0639535014405977
203.071228  0.010517684940636754
220.7739258 0.008393310927140175
251.3939667 0.006956392136549839
268.0739746 0.04097605903341474
280.0736084 0.043184340205582636
282.0896912 0.04868354608702608
283.0970154 1.0
295.0971985 0.08682399297649802
298.0820007 0.008023410825960605
301.1078796 0.19759794366947056
301.1447144 0.014397601613647696
313.107666  0.5702003576957697
313.1499329 0.011099191735116904
331.0716553 0.011198379090208575
331.1180115 0.5490866607241172
343.1176147 0.010499505734619182
354.6925354 0.007778869913120464
393.209137  0.007451557549626003


