PRECURSORMZ: 173.04744015799997
COMPOUNDNAME: casmi2022challengepriority129
FORMULA: C6H9N2O2P
SMILES: C1=CC=C(C=C1)OP(=O)(N)N
INCHIKEY: AYRRNFHDJUXLEQ-UHFFFAOYSA-N
PRECURSORTYPE: [M+H]+
PRECURSORINTENSITY: 1547357.519531
IONMODE: positive
CHARGE: 1
PARENTMASS: 172.04016415799998
NUM PEAKS: 38
55.93460464 0.009244199449867747
59.29933929 0.004273301626957982
59.45084381 0.003905906902522353
60.5152092  0.0038831234959400057
70.95818329 0.00597974461886818
71.92926788 0.008103229654986499
72.93708801 0.006982793686763789
74.2114563  0.00513814558093392
88.62483215 0.004245358876572858
88.96841431 0.008194729912555742
89.93975067 0.008484107490984223
90.90315247 0.009370103590249692
90.9475708  0.00933507940701531
95.04912567 0.01009620784232228
97.01598358 0.006037970118753376
105.9347229 0.05564108258650484
107.9499817 0.007384349029230288
113.9636307 0.010391639295233448
114.9712219 0.007578994049808933
123.945282  0.02070411398776896
125.9635696 0.005940239607348111
128.950531  0.14191552511835412
131.9295959 0.08755880130911055
131.9508209 0.00405072896714653
146.9611511 0.048554394029033325
148.9765167 0.006427906223608446
149.9401093 0.09721872193982853
149.9606934 0.031854947490796405
149.9772644 0.005081294452749695
150.0136719 0.020474343217193647
156.0199127 0.005417039983146219
163.7705994 0.004475136583414766
167.9710388 0.005762489350650703
173.0472717 1.0
173.0672302 0.005549595507842265
173.0739288 0.013795136546632735
174.0312805 0.3431100818343123
240.7967682 0.004461606899776384


