PRECURSORMZ: 671.0656659279998
COMPOUNDNAME: casmi2022challengepriority241
FORMULA: C27H24O18
SMILES: C1=C(C=C(C(=C1O)O)O)C(=O)OCC2C(C(C(C(O2)OC(=O)C3=CC(=C(C(=C3)O)O)O)O)O)OC(=O)C4=CC(=C(C(=C4)O)O)O
INCHIKEY: SUAXOYITDJNGFM-AJHJKSEASA-N
PRECURSORTYPE: [M+Cl]-
PRECURSORINTENSITY: 1667916.71875
IONMODE: negative
CHARGE: -1
PARENTMASS: 636.0962639279999
NUM PEAKS: 10
64.03377533 0.059499289815650495
88.13378906 0.057045118150517535
125.0229568 1.0
144.065155  0.05989486362368264
161.4446869 0.054731235924165664
169.0131073 0.29756884711892895
175.1111755 0.06327915421582972
232.7009125 0.07126905116720116
254.0865936 0.06482177015335183
532.7236328 0.0706388974957947


