PRECURSORMZ: 343.1550978679999
COMPOUNDNAME: casmi2022challengepriority138
FORMULA: C20H24O5
SMILES: CC(CC1=CC(=C(C=C1)O)OC)C(C)CC2=CC3=C(C=C2O)OCO3
INCHIKEY: DIADZLCOROOTGN-OLZOCXBDSA-N
PRECURSORTYPE: [M-H]-
PRECURSORINTENSITY: 84431288.58594
IONMODE: negative
CHARGE: -1
PARENTMASS: 344.1623738679999
NUM PEAKS: 88
75.03268433 0.0017372295964652792
93.0331192  0.006704406499616658
97.37109375 0.0016515236989309658
108.0027466 0.0035459785387319544
108.0203018 0.3781361267661114
108.0271606 0.005676168412522121
108.0427933 0.002323438059941144
109.0280533 0.028577135210204007
115.0343018 0.001582348637550608
121.0281906 0.2325917570899057
121.0362625 0.003300451102396512
121.0548172 0.0020541789893749893
122.0144501 0.008777382923362342
122.0359726 0.6573693899001389
122.062912  0.005481575729622826
123.0438309 0.08611270903668747
123.0516205 0.002668466699804774
124.0154037 0.020555694598432428
125.0227661 0.0021216881132631532
133.0651855 0.002416834141109732
134.036026  0.010225079977009086
135.0438995 0.10782650603451423
136.0153198 0.1211084180560813
136.0248108 0.002836261019881904
136.0516663 0.026661737183022272
136.996933  0.002424861715553982
137.0231323 0.20807086254835008
137.0404663 0.0023030360489207815
137.0587616 0.002842356384554007
138.0310974 0.017468519898717005
146.035614  0.0020716610124120187
147.0800476 0.0019601024971513557
148.0518036 0.0306612481577486
149.023819  0.01254084417867773
149.0298309 0.008175011601139842
149.0595551 1.0
149.0704803 0.015236216200571457
149.0968933 0.009464079430338397
150.0309906 0.30019522580669955
150.066803  0.02168103668794423
151.0390167 0.021394999836671324
152.0463257 0.0015646291461765332
153.01828   0.003435542908124737
154.0258179 0.0114882118728419
159.0806427 0.002078613177105451
161.0596619 0.0018783325129870317
162.0674438 0.0033244966714576414
163.0392303 0.044984431534540174
163.0752563 0.07652640256099365
164.0467987 0.01075492691161805
165.0543213 0.00669154736867894
175.0383148 0.0022234834992400413
175.0753784 0.03097084607136887
176.0834961 0.03795343823678046
177.0546722 0.10077519873256947
177.0910187 0.36497623087373154
177.1383667 0.0026438792037919152
178.0625153 0.031411434184307765
178.0987549 0.0019415634538514823
179.1055603 0.0019699110372115567
180.7223053 0.0016261638444231904
182.0207672 0.019081174412449105
187.075943  0.0020812652039783022
188.0824585 0.0025408329573371083
189.0911865 0.025967635341827704
191.0701904 0.013505074838160496
191.1062164 0.010018639585010656
204.0773621 0.0025919304014474765
205.0862732 0.061453477507719685
206.0946045 0.0027200799878176023
216.2335358 0.011012267154555045
256.1459961 0.0023087450466975903
270.1263123 0.0031998013064612825
281.117218  0.006409352794505624
283.1346741 0.0029468681606116564
285.1154175 0.014288455016400121
295.0952454 0.003143522154994591
299.128479  0.022399553764437776
300.1364441 0.11318642479290884
300.1750793 0.003227588573381653
313.1066895 0.0062821455755702575
314.1521301 0.09762368184150201
315.1596069 0.04620597091212341
327.1210632 0.002795803583395142
328.131073  0.06918201035503811
338.514679  0.001623527767616439
343.1543274 0.01840929758100622
358.6643066 0.0018922663030842219


