PRECURSORMZ: 441.1321697919999
COMPOUNDNAME: casmi2022challengepriority203
FORMULA: C21H26O8
SMILES: CC1COC(=O)C1(C2C3=C(C(=O)O2)C45CCCC(C4C(C3OC)OC5=O)(C)C)O
INCHIKEY: CLMACWUIFILBBM-UHFFFAOYSA-N
PRECURSORTYPE: [M+Cl]-
PRECURSORINTENSITY: 10644756.625
IONMODE: negative
CHARGE: -1
PARENTMASS: 406.1627677919999
NUM PEAKS: 16
57.30278778 0.05504916524545981
73.47537231 0.057974323160321056
89.92050171 0.05353638207280333
199.0770721 0.07170017458868974
211.1505585 0.058693693439274365
215.7918549 0.26069889678402547
215.8204041 0.113474210957283
241.1590424 0.06812837783832518
255.1391602 0.08291631361945552
269.154541  0.2552417187607089
291.124939  0.23824597222414712
302.1521606 0.07340469728246639
304.2952271 0.07187884392709058
317.1756897 0.09219283278880369
325.0673523 0.05951922706344902
331.1545105 1.0


