PRECURSORMZ: 457.20163575600003
COMPOUNDNAME: casmi2022challengepriority104
FORMULA: C22H28N6O3S
SMILES: CC(C)NC1=C(N=CC=C1)N2CCN(CC2)C(=O)C3=CC4=C(N3)C=CC(=C4)NS(=O)(=O)C
INCHIKEY: WHBIGIKBNXZKFE-UHFFFAOYSA-N
PRECURSORTYPE: [M+H]+
PRECURSORINTENSITY: 66077874.75586
IONMODE: positive
CHARGE: 1
PARENTMASS: 456.19435975600004
NUM PEAKS: 119
54.03417206 0.002528783653221485
55.29196167 0.0019361739738937408
56.04972839 0.00999539217793163
58.06520844 0.0032463580448362384
59.06053162 0.015694953601253878
61.72303009 0.0017628035677734904
63.91221619 0.0017540301670636665
64.65574646 0.0017710494678444147
66.03421783 0.0031692154354725287
68.04948425 0.008965528584899551
70.02892303 0.002384212135028547
70.06095123 0.004157462568302572
70.0651474  0.0797107774204672
78.03403473 0.002939874711661554
79.04161072 0.06490269041308415
80.04937744 0.003932659484396112
82.05240631 0.00772242700759172
82.06494141 0.0029943978163290285
82.92610931 0.0020126932879983447
83.06031799 0.00853701572021313
91.04195404 0.015276236996939089
92.03697205 0.0020116317743669784
93.044487   0.019533916283595746
94.05246735 0.009625966947535149
95.03617096 0.0019023145670932881
95.06025696 0.012179218773562116
97.05200958 0.011031596702578422
103.0413742 0.003185230993500325
104.2704239 0.0021296854089883077
105.0446091 0.061754112836140296
106.0525436 0.022549732600577764
107.0363693 0.011139191707447612
107.0602875 0.004275906313910137
108.0556107 0.003141683725503736
108.0686493 0.0031364650194617024
109.0633621 0.2204337064120361
109.0766068 0.007502343069185954
110.0596008 0.0017731266985562587
110.0618668 0.003151408560062057
110.0711823 0.09350712534502197
111.0551071 0.015679286979331703
118.0537415 0.002205020525123386
119.060257  0.022117446772341107
120.0555878 0.08838129975001167
120.0677872 0.010500355871972244
121.0633698 0.002782675319751014
121.0759354 0.013903478241485585
122.0710907 0.054812313667699446
129.0450897 0.0039014203545645943
130.0524139 0.12561789882883448
131.0726013 0.003831319700165662
132.0555878 0.009685392383906869
132.0664368 0.0022153142452771436
133.0633087 0.011531996707300258
133.0759125 0.01020737642910784
134.071228  0.2445725255489966
134.0830841 0.012419255722992451
134.0958252 0.0022443194277593746
135.0313263 0.01003793339234013
135.0551453 0.009545690215498502
135.078949  0.6383884174583537
135.1032715 0.007672039037363155
136.0539398 0.005761614489320157
136.0868073 1.0
136.1121826 0.011792937891527739
137.0948181 0.0026540191533713144
141.6757965 0.0019433438650947152
145.0394897 0.39804507985923554
145.0754089 0.022841160002534087
146.0471039 0.02425870526384514
146.0708771 0.00366539879629791
147.0785065 0.010477909679911251
147.0904694 0.002289583646262426
148.0404816 0.0030192153453919737
148.0867004 0.06809462766022668
150.1025085 0.020141447445552085
152.1180725 0.05296929912165274
157.0755463 0.0027022933396776932
158.0472717 0.4507903641018393
158.0628967 0.003870716918332915
158.0825806 0.011964268250374251
160.0869141 0.020001594022480234
161.0813599 0.002731891776562255
161.0946655 0.007653538071108031
162.0671234 0.019639061803220184
162.1022491 0.15079299391625509
163.049881  0.022981999942133326
163.1103058 0.004179996992250599
164.1179504 0.063032376080886
174.1026154 0.012028364934936564
175.0503693 0.02460577253406766
176.0578308 0.003254198288302736
176.0820007 0.002945754106476722
176.1043396 0.00860396187457474
176.1188965 0.04954832197941882
177.1130524 0.00847167286528445
178.1336517 0.8746718109923877
178.170929  0.010579695665398977
179.1285553 0.05573431167807544
188.0814667 0.01074714886303819
189.0581207 0.0043516449858904275
189.0769501 0.10436813787842707
200.080719  0.004148904495412291
201.0887909 0.020771239932758496
202.0968475 0.003500885191028321
203.0926666 0.027025238769939532
204.1490784 0.03620654137563925
205.1075439 0.007211414807619126
215.550766  0.011339439437041167
219.1597748 0.016194404903114194
221.175766  0.18095130497952402
224.0241089 0.008295099011437166
237.0325775 0.10946010931853495
237.0594025 0.003239011899937121
278.6536865 0.0020259913039055487
281.2479553 0.0019181366451973781
292.3275757 0.0022010790806841047
292.6739197 0.0023026552003262476
304.264801  0.003058264257681371


