PRECURSORMZ: 355.18797937599993
COMPOUNDNAME: casmi2022challengepriority220
FORMULA: C20H28O4
SMILES: CC1=CC(C(=CC(C)CCC=C(CCC=C(C)C)C(=O)O)C1=O)O
INCHIKEY: QQQHFUHGZMFSOB-UHFFFAOYSA-N
PRECURSORTYPE: [M+Na]+
PRECURSORINTENSITY: 4974933.177734
IONMODE: positive
CHARGE: 1
PARENTMASS: 332.19876137599994
NUM PEAKS: 12
53.0838623  0.020370085851292734
66.17290497 0.01799142308456829
73.45967102 0.018594254895872863
73.85700989 0.015524191263078628
88.25370026 0.019541615124678433
96.64720154 0.019522680117688644
107.7005997 0.01827396148026969
164.4046478 0.018238434470625182
208.160202  0.017761634115128575
304.2365417 0.03076830418233503
337.178009  0.03539215444690313
355.1874084 1.0


