PRECURSORMZ: 589.3007236079999
COMPOUNDNAME: casmi2022challengepriority242
FORMULA: C32H44O10
SMILES: CC1C(C(C(C(O1)OC2CCC3(C4CC(C5(C(CCC5(C4CCC3=C2)O)C6=COC(=O)C=C6)C)OC(=O)C)C)O)O)O
INCHIKEY: XBOVCSNIOQPGAW-UBNYYTIRSA-N
PRECURSORTYPE: [M+H]+
PRECURSORINTENSITY: 23540067.48828
IONMODE: positive
CHARGE: 1
PARENTMASS: 588.2934476079998
NUM PEAKS: 211
52.4827652  0.002893228967736246
53.03901672 0.004742934190462491
53.59257126 0.0027186598335904506
55.01805878 0.003542680086961787
55.05439758 0.024350768576575938
57.03371811 0.09069852486153772
59.04937363 0.022947321326718353
61.02843094 0.0040695920290935335
67.05419922 0.020218337753283227
69.0335083  0.005114743513895759
69.06965637 0.0035619386368026286
71.0125885  0.016248935141320454
71.03960419 0.006413034473665101
71.04915619 0.7805797413376688
71.05290985 0.014334888864974454
71.06085205 0.004767298880116518
73.02851868 0.031076004290122028
75.04401398 0.05657204366786471
79.05445862 0.02342086228413974
81.06980896 0.09721583983305146
83.04918671 0.08654471610857135
85.01589966 0.006036489609802807
85.02839661 1.0
85.03312683 0.019938114146270322
85.04388428 0.00592761050168849
87.04421234 0.039409136605613675
91.05412292 0.0344943550600894
93.06974792 0.0684498277712033
95.01270294 0.012166192675818106
95.04905701 0.006399770474014924
95.08551788 0.0388149026916122
97.02848053 0.013179388959997445
97.06529236 0.004666432756922385
99.04410553 0.023932805375986264
101.0596619 0.01748383397817564
105.0698547 0.1593199817407506
107.0490189 0.02025364236851728
107.0854568 0.06774721994194295
109.0282593 0.012389639335558094
109.06427   0.004855413206592591
109.1007538 0.017795350567239698
111.0439301 0.06479096407628471
111.0804672 0.0037821024776594518
117.0697403 0.022715676616035393
119.0493164 0.004612386935502318
119.0853806 0.07647947984947305
121.0644913 0.01795244171100724
121.1010361 0.03708746652436049
123.0441971 0.02703690282297543
123.0801315 0.01233863308336235
123.0900116 0.003468045436826724
129.0544891 0.19611272221157772
129.0698853 0.014110693529050984
131.0853424 0.07596702268534074
133.0647278 0.006105536527860519
133.1009521 0.059945094388008574
135.0440521 0.03345723759043709
135.0802002 0.007334982927117324
135.1172638 0.0067258983994563145
137.0596924 0.017006262694033686
137.0961304 0.007142002527725208
141.06987   0.013234257297074769
143.0852051 0.06506172127582407
145.0654297 0.004518993553989659
145.1009369 0.09009316829262559
147.0657501 0.006880503770052905
147.0801849 0.024834564808760323
147.1165771 0.03323458260201721
149.0591736 0.01349761185569881
149.0836792 0.0034555158595375836
149.095993  0.007506052631012238
149.1318512 0.0047171319677619325
151.0749359 0.006701346774425638
155.0849457 0.04644345127091231
157.0643158 0.0034760483739702925
157.1010132 0.08517707446075724
159.0804443 0.01816995036850795
159.116745  0.08122439321823578
161.059433  0.011478592018595194
161.0958405 0.03205540546223376
161.1324921 0.040313286941855084
163.0758972 0.006136205145753663
163.1114655 0.006077434532688776
165.0545502 0.013468064850065565
165.0909424 0.004815709534607481
167.070694  0.005397100053556238
167.0849915 0.007804736106469298
169.1010132 0.02807020120288279
171.0803375 0.017606480409441714
171.1161804 0.03897070958934216
173.0608521 0.0039033457252545746
173.0960388 0.01796697593654175
173.1321564 0.04114803938886907
175.0749512 0.018929637045674505
175.1112976 0.019830693601432362
175.1491852 0.005536061269819412
177.0910187 0.007061220741398313
178.1371307 0.0040401842903158925
179.0693665 0.014917871138655383
179.085556  0.006045870961679971
180.4507446 0.0035303888522777794
181.1013336 0.02415880089958687
183.0795593 0.005390638632262342
183.1163177 0.04894094155131956
185.0961151 0.013277038392697928
185.1321259 0.07430376143289286
187.0749969 0.017556361165608173
187.1481171 0.006108966324683647
189.090683  0.025593120526898147
189.6798401 0.0031795062432527547
191.1067352 0.004128754739110895
193.0842743 0.006841439417055936
193.1014252 0.01462874286497577
195.1164551 0.05799732870842251
197.0980377 0.008584120164273425
197.132309  0.08785187294591669
199.0756226 0.005011649121011961
199.1120911 0.006185588331541693
199.1477814 0.03193688095602281
201.0909729 0.012771653928541156
201.1271515 0.005840024267651548
203.1062622 0.0194591408468035
205.0842133 0.006625801047998604
207.1165924 0.021587697337208746
209.0970459 0.006355889731038577
209.1326447 0.037415642794191566
210.1408539 0.00345636197578612
211.1113586 0.018108158879756406
211.147995  0.05399177092526192
212.1572571 0.004232673517005813
213.0897064 0.0033868764606008717
213.1276093 0.020662417695344628
213.1635895 0.05223856758569282
215.1062927 0.006193953689646765
215.1423798 0.006727313032919158
215.1778412 0.0047392856792486835
217.1217651 0.007393419393196402
219.1179199 0.005492652538669201
220.0676117 0.006483293200301992
221.1331787 0.022389902465794264
223.1127472 0.013198578811087415
223.1473541 0.030729856053179856
225.0909576 0.004412728737117883
225.1265411 0.018819750823218535
225.1636047 0.18933375753207496
227.1062927 0.014283822793458183
227.1411896 0.006692521087955518
227.1789093 0.03761727129144589
229.1223602 0.018613675133353717
233.1326752 0.011587316437685286
235.1116791 0.005058605885610983
235.1473694 0.015039322118187783
237.1295319 0.008558946511776898
237.1638794 0.023131207787374857
239.1062012 0.034123972520918366
239.1424255 0.006577209533530781
241.1219177 0.05996909689037039
243.1382141 0.019317165297591848
243.175293  0.0048923965015089605
245.1326599 0.007573490035477092
247.1475983 0.007293380459043942
249.1285706 0.011891628537333268
249.1637421 0.026461536296539207
251.108017  0.0047930599770342145
251.1791229 0.10392119683864462
252.1873627 0.07328040240696196
253.1223907 0.03877427415685116
253.1952209 0.004820618457598301
255.1389923 0.023925161588435058
259.1478577 0.007775610172772004
261.1623535 0.013156694070595292
263.145813  0.004871098019370381
263.1802063 0.015113218607254278
265.1233521 0.0054182186103948395
267.1392212 0.03812409422332598
269.1888123 0.006979311734750126
271.1313171 0.005505195902442393
275.1777039 0.005179379691741518
279.1363525 0.004446964081997501
281.1542053 0.013142230880503909
285.1486511 0.021614546865356937
287.1484375 0.003810259618767307
287.1775513 0.02539022834649767
291.1378174 0.012233902538594379
291.1741333 0.004973143237452781
291.2098694 0.006168100527056117
293.151123  0.003919782719254087
299.1644897 0.004844606005129985
301.1573181 0.021339232181334853
301.1950073 0.025848694835146027
303.2093201 0.004396551349622621
305.1543274 0.0055788619936571185
305.1907654 0.02124181080979388
319.1680908 0.04143507492100709
319.2058411 0.04606671292893519
321.1829529 0.01245912508441254
321.2221069 0.005561390546017047
323.1996155 0.005983097594862525
329.1916809 0.035063083511300795
332.1789246 0.004725015967272132
337.217926  0.0275747327257804
345.1845093 0.003972046345527091
347.1498108 0.006389020755180685
347.2000732 0.3684301561876477
349.2161865 0.007364253268393128
358.0591431 0.003196378796679956
365.2105103 0.19792610004889033
383.2212524 0.062469327643399325
529.2719727 0.004694030493915567
571.2889404 0.03051958553346302
589.2995605 0.07280277504220702


