PRECURSORMZ: 401.1241916639999
COMPOUNDNAME: casmi2022challengepriority102
FORMULA: C21H22O8
SMILES: COC1=CC(=CC2=C1OC(C2CO)C3=CC(=C(C(=C3)OC)O)OC)C=CC(=O)O
INCHIKEY: MXADFNHTWMJYES-XOBRGWDASA-N
PRECURSORTYPE: [M-H]-
PRECURSORINTENSITY: 8444069.670898
IONMODE: negative
CHARGE: -1
PARENTMASS: 402.1314676639999
NUM PEAKS: 73
73.20161438 0.017519150430886733
83.03387451 0.019001500757146503
90.30923462 0.019402290403601218
100.050705  0.020752419426643676
137.0222473 0.024378412090333507
138.030899  0.022540009047267898
147.0440063 0.35300016078958446
148.0395508 0.027861732535495617
148.0517731 0.5016469680400533
149.0595856 0.029004153948363153
150.0306854 0.024748307632547647
151.0384216 0.09875363611131857
155.6569366 0.020096095014577268
160.0149078 0.031893965547325674
160.0510864 0.025852843203411427
161.0592651 0.025804722517293033
162.0302734 0.04125690734769306
162.0675812 0.1478626237272591
165.0177765 0.03028912731371504
170.1593323 0.02006761234642272
174.0324554 0.02136156897367691
176.0464935 0.12880480992420712
179.034317  0.03318027203119034
180.0413513 0.042743509792020885
184.9766235 0.019869350716655368
189.0547485 0.029360196473130807
191.0340729 1.0
191.069931  0.10329224012505711
192.0416107 0.179133882279194
193.0491791 0.10605234989248623
206.0574036 0.3196706650981257
215.7981415 0.15118861988070262
220.0363007 0.09854208202617054
224.0323486 0.04786648854790046
229.1666412 0.02123658605553144
233.0445557 0.08361933277866906
235.0574951 0.021603613558377872
237.0547485 0.02796605823192162
238.0478973 0.11365351442654378
251.0714264 0.02704735612022928
253.086853  0.09357925279481977
254.0566864 0.023653311808837375
265.0496826 0.06909795412376363
266.0578003 0.030045574307454918
267.0283813 0.10073225305345292
267.0635681 0.02434564265118258
269.0815735 0.04758476839940044
279.0667725 0.13874728932569153
281.0822449 0.02271277019906904
282.0530701 0.24490249726119567
293.07901   0.0314106509727772
294.052124  0.09861771509846813
297.0765381 0.5597622923311195
304.2805786 0.03663253122269553
309.0393677 0.03598578121071011
309.075592  0.10521074850649959
310.0472717 0.04408107610957044
312.1009216 0.031525431661328214
313.105896  0.031716972661531166
321.0415039 0.02570645496799048
322.0481567 0.19747517953477997
323.0554504 0.12644691057326868
324.0643921 0.03269423006739138
325.0713806 0.0424270633331583
333.2009888 0.021364037485172415
337.0714417 0.6114726140766226
338.0416565 0.10082473152542351
338.0828552 0.031061789757671064
341.0661926 0.3013235950724678
342.0719299 0.03248301639629794
353.0664062 0.42777269897221865
356.089386  0.08982865635678197
357.0984497 0.03443301205856696


