PRECURSORMZ: 577.1562796399999
COMPOUNDNAME: casmi2022challengepriority6
FORMULA: C27H30O14
SMILES: CC1C(C(C(C(O1)OC2C(C(C(OC2OC3=CC(=CC4=C3C(=O)C=C(O4)C5=CC=C(C=C5)O)O)CO)O)O)O)O)O
INCHIKEY: LYKXPTCUGPKDQL-ZRXCBZTOSA-N
PRECURSORTYPE: [M-H]-
PRECURSORINTENSITY: 55648279.7832
IONMODE: negative
CHARGE: -1
PARENTMASS: 578.1635556399999
NUM PEAKS: 65
59.01268387 0.008856010156934694
63.02271652 0.2783806244710468
63.0265274  0.0070041667137900245
63.78578186 0.005658431226870587
65.00197601 0.26464133256190797
67.26007843 0.012147223346643444
67.26387024 0.006400625629419184
69.12622833 0.005422674434425534
72.06189728 0.006483048517645092
81.03318024 0.009072293599607505
83.01270294 0.04908680619223854
93.03326416 0.13268377890649194
96.06716156 0.006038863912018746
100.9450607 0.005952246570638064
105.0332489 0.0400924382843448
107.0124512 0.38134237197682186
116.5434647 0.006117506769108249
117.0258331 0.017085699473753647
117.0332031 0.9285615952108861
117.0624619 0.006586267407734087
121.0280762 0.12470421390910232
131.0479736 0.0064044523054580796
132.0214996 0.006228659329198699
135.0436859 0.03153966484446322
139.0543365 0.0061353529293974715
147.0077972 0.03116003633537438
148.0150452 0.011593682906689872
149.0232086 0.18588264900333765
151.0024109 0.3044509628024556
154.0407257 0.006132196325323193
155.0487823 0.0472381072434338
157.0647736 0.05140326022321351
159.043869  0.30358394170724823
161.0231781 0.23009308944718357
167.0506897 0.007479062502619291
169.0647125 0.1336291777901603
171.0443268 0.024006841400672076
173.0596008 0.02828424354425938
174.6578369 0.006285362038788121
180.0571289 0.05038601024936336
181.0646973 0.10388219495468068
182.0359344 0.04990142712160248
183.0439453 0.23543705957883068
185.0597534 0.008212813729308465
195.0445709 0.037457916251359594
196.0520325 0.15341817002948188
196.9490662 0.005704508765883281
197.059906  0.13497257968642914
199.0393066 0.03171408448715121
201.0547943 0.09644175891640992
203.0344543 0.008170235006491248
210.0322723 0.010986811196877772
211.0397186 0.009694911552079421
213.0551147 0.0252775167178201
220.7702026 0.007162787638302854
223.0401459 0.006010947386387083
224.0464325 0.07104235368627919
225.0549316 0.2108606067752625
227.0337219 0.05329616059923171
240.0427704 0.04500716049486194
241.0498199 0.021138038168791742
267.028595  0.006602056258718337
268.0374756 0.011770783734253686
269.0181274 0.01336555052495465
269.045105  1.0


