PRECURSORMZ: 577.3018183679999
COMPOUNDNAME: casmi2022challengepriority132
FORMULA: C30H44O8
SMILES: CCCC(C(C=CC(=O)OC1CC2C(C2(C)C)C=C(C(=O)C3(CC(C(C3C=C1C)O)C)OC(=O)C)C)O)O
INCHIKEY: NBEYAEFZGDUVGW-MBKLMEFLSA-N
PRECURSORTYPE: [M+FA-H]-
PRECURSORINTENSITY: 84269452.76563
IONMODE: negative
CHARGE: -1
PARENTMASS: 532.3036173679999
NUM PEAKS: 12
57.03329468 0.06444333236933991
59.01248932 0.8835709197550167
66.36998749 0.034238595135498213
72.31587219 0.03221827618876673
101.023056  1.0
111.0795059 0.04681856766413457
122.5149994 0.037268968335632306
142.5921631 0.042074647189428625
158.9007721 0.03614772910372855
221.2986298 0.04835905679570057
229.267868  0.04161189744391554
292.4248962 0.03766478670604918


