PRECURSORMZ: 181.087018308
COMPOUNDNAME: casmi2022challengepriority73
FORMULA: C10H14O3
SMILES: CC1=C(C(CCC1=O)(C)C)C(=O)O
INCHIKEY: NCJFEURQKCATER-UHFFFAOYSA-N
PRECURSORTYPE: [M-H]-
PRECURSORINTENSITY: 127127028.8477
IONMODE: negative
CHARGE: -1
PARENTMASS: 182.094294308
NUM PEAKS: 45
55.01787186 0.004674154708816474
55.51873016 0.0006264003143172189
57.94284058 0.0008039458250790538
57.9745903  0.0030691246925368594
58.21921158 0.0008163073193266718
63.05958939 0.0007623965390259879
68.11386871 0.0008457866198457792
69.03331757 0.0012376093668737343
71.04901123 0.0010714896613559018
81.03298187 0.0013934840359130895
87.87181854 0.0007302879207116803
91.05419159 0.0011050048541863102
91.29262543 0.0007522319394214829
92.91858673 0.0015561091490201837
94.04106903 0.0053189610186605485
95.04876709 0.030071388553147605
96.84702301 0.000794252710622942
97.02749634 0.0010471938706141245
99.04380798 0.0012757697677604509
107.0484238 0.0014351505936173454
108.0201645 0.0015696657176328516
108.0563889 0.0012877879276194859
109.0413971 0.004456781895005389
109.0644608 0.43985314399893266
109.0824814 0.006250449144427699
110.0679779 0.0039100945227943116
116.9333496 0.0013985212345288178
119.0857544 0.0013408169861482927
121.0646667 0.013207564066937032
123.0439987 0.00532786681116919
130.0709839 0.0007301300451432775
135.080307  0.008840262240697422
137.0634308 0.009631916643267846
137.0708313 0.0039751399422744286
137.0957947 1.0
137.1212158 0.013938418129608329
137.1348114 0.0020655805468999654
138.0997314 0.008165414171852346
139.0753174 0.0032037395274376727
153.0907135 0.006150320912528584
177.5124054 0.0009510287180946
180.8766785 0.0012198933809526753
181.0669556 0.0016867879738195481
181.0858612 0.08621985861234947
181.1046295 0.0017912541432031535


