PRECURSORMZ: 353.20469205999996
COMPOUNDNAME: casmi2022challengepriority148
FORMULA: C16H30N2O5
SMILES: CC(C)CCCCCCC(CC(=O)NC(CC(=O)O)C(=O)N)O
INCHIKEY: KMSCXNAPFWQQKD-UHFFFAOYSA-N
PRECURSORTYPE: [M+Na]+
PRECURSORINTENSITY: 4209659.755859
IONMODE: positive
CHARGE: 1
PARENTMASS: 330.21547405999996
NUM PEAKS: 10
58.66396713 0.01892982399384573
81.64138031 0.023201872266351262
105.5372238 0.02116073485435
109.0368271 0.048766848447251446
138.0160065 0.1373181169536897
155.042572  1.0
239.1629639 0.020975347057948762
264.1916809 0.04414485436683801
336.1799927 0.04000688730066392
346.9890747 0.023959155697122852


