PRECURSORMZ: 359.2192795039999
COMPOUNDNAME: casmi2022challengepriority221
FORMULA: C20H32O4
SMILES: CC12CCC(=O)C(C1CCC34C2CC(CC3)C(C4)(CO)O)(C)CO
INCHIKEY: SYLBWUCYLWBMER-BHJGDWCPSA-N
PRECURSORTYPE: [M+Na]+
PRECURSORINTENSITY: 709541.0654297
IONMODE: positive
CHARGE: 1
PARENTMASS: 336.23006150399993
NUM PEAKS: 12
51.10011292 0.015210841716166075
51.28633881 0.01753662604003802
63.42715836 0.016512364183437076
66.60202789 0.015064593091071813
68.01903534 0.017434757792004114
87.2694931  0.01673310753540598
118.4929123 0.017617289275697105
200.9431763 0.016551006390939475
216.4514465 0.08572461879536528
304.2465515 0.022803724481146946
333.170166  0.019867328258041727
359.2191162 1.0


