PRECURSORMZ: 664.6909668200001
COMPOUNDNAME: casmi2022challengepriority164
FORMULA: C19H10Br4O5S
SMILES: C1=CC=C2C(=C1)C(OS2(=O)=O)(C3=CC(=C(C(=C3)Br)O)Br)C4=CC(=C(C(=C4)Br)O)Br
INCHIKEY: UDSAIICHUKSCKT-UHFFFAOYSA-N
PRECURSORTYPE: [M-H]-
PRECURSORINTENSITY: 5855357.609375
IONMODE: negative
CHARGE: -1
PARENTMASS: 665.6982428200001
NUM PEAKS: 31
102.3916702 0.04572399912661034
126.9035492 0.06306018460216072
170.8733673 0.04636770862506392
177.553299  0.053460973315264476
214.4367523 0.05419067077422762
221.1904755 0.057732044144376535
248.8552399 0.3581292553448102
255.0464783 0.06122902362098124
272.9545288 0.1866087310105189
290.4954529 0.04679478203173979
318.9751587 0.1960280054709003
334.9703674 0.09562208935511418
335.9803467 0.04586067373773637
346.9707336 0.6159042680164728
349.01651   0.10397023240048674
350.8653564 0.48780766765596484
362.9649963 0.2829046270208091
396.8866577 0.26340925053302433
398.9013367 0.24305038403439425
399.9383545 0.08346610385061991
413.8884583 0.0741553921762124
424.8800354 0.46004648260332653
426.8903809 0.06607194434367679
427.9345093 0.3113297821351172
428.7719727 0.05730053017359475
440.8745117 0.23501432571404585
469.7207336 0.0560126765182974
498.617157  0.043975834403141595
504.8060608 1.0
505.8503418 0.06952061016953401
886.4359131 0.05685869404497601


