PRECURSORMZ: 279.193064756
COMPOUNDNAME: casmi2022challengepriority185
FORMULA: C15H28O3
SMILES: CC12CCC(CC1C(CCC2O)(C)O)C(C)(C)O
INCHIKEY: ODDNJYHUVXKJBI-MIBAYGRRSA-N
PRECURSORTYPE: [M+Na]+
PRECURSORINTENSITY: 938660.9609375
IONMODE: positive
CHARGE: 1
PARENTMASS: 256.203846756
NUM PEAKS: 4
74.29906464 0.09590560062562374
149.0230408 0.15733159275151912
220.1146088 0.14136169318199315
279.1927185 1.0


