PRECURSORMZ: 199.097582992
COMPOUNDNAME: casmi2022challengepriority222
FORMULA: C10H16O4
SMILES: CCCC1C(C(CO1)O)C=CC(=O)O
INCHIKEY: NQNFBFWPHHJVSM-UHFFFAOYSA-N
PRECURSORTYPE: [M-H]-
PRECURSORINTENSITY: 83098035.43359
IONMODE: negative
CHARGE: -1
PARENTMASS: 200.104858992
NUM PEAKS: 40
51.11284637 0.0016311197625753612
55.63835907 0.004277327273989593
57.03327179 0.011919183657294111
59.0125618  0.20294738534523799
59.01545715 0.003134178986589854
59.86523056 0.0018415810841240947
60.99172592 0.0019909214368686264
65.0383606  0.1476933715933483
65.04180908 0.0022565089131627468
67.01760101 0.0043503991278176475
67.05396271 0.008334770498201494
69.03333282 0.01569408913175797
71.04889679 0.035516664087056324
71.1259613  0.0019867878206438253
74.32936096 0.0017914765780951147
80.02536774 0.003709977147066674
80.7895813  0.00205006225974388
83.04881287 0.007880375181486245
93.06947327 0.0031066673117867575
95.08538818 0.01852719621629889
97.04236603 0.0018688309031924875
102.8215485 0.0017098566043875648
104.6178207 0.0017269288846017187
107.0487061 0.0029220574894875443
108.0564957 0.003043408675790744
109.0279083 0.0070915814253352015
109.1123505 0.0019019236226098801
119.0853119 0.06053996921345984
119.0945206 0.0016624127973164048
121.0644379 0.015262746635544298
135.0803375 0.0194898995639806
137.0959015 0.2639141049787437
139.0384827 0.0031069259389303137
139.0496979 0.010532872838086429
139.075119  1.0
139.1012726 0.006042700522725627
139.1073608 0.009637806095997698
151.0752258 0.008234877888076059
181.0856171 0.018447200563790588
199.0979004 0.003660800945955728


