PRECURSORMZ: 484.216557548
COMPOUNDNAME: casmi2022challengepriority105
FORMULA: C28H29N5OS
SMILES: C1CCN(C1)C2CCN(CC2)C(=O)C3=CC=C(C=C3)NC4=NC=CC(=N4)C5=CC6=CC=CC=C6S5
INCHIKEY: BWZJBXAPRCVCKQ-UHFFFAOYSA-N
PRECURSORTYPE: [M+H]+
PRECURSORINTENSITY: 207692344.7188
IONMODE: positive
CHARGE: 1
PARENTMASS: 483.20928154800004
NUM PEAKS: 26
52.31365204 0.0004472935662705206
75.51567078 0.0009708454972154945
75.5197525  0.0006915753077436301
82.51303864 0.01017985508313183
82.51948547 0.008390448248411661
84.08049011 0.002460613168941921
98.09603119 0.0006172882714885578
110.0960617 0.0023186738470769193
124.1119156 0.002187527961820855
153.1383057 0.0008696164713345464
155.1538849 0.0025889334667559506
211.0350494 0.0007749363190915742
215.4831696 0.0029347738748398532
300.0593567 0.0010079341726823253
301.0679321 0.0006967420878552712
302.0743713 0.11858166609595325
304.2485962 0.0005368941937851062
329.0618591 0.001027490322002127
329.9496765 0.005504275079048014
329.9752808 0.00569678125545603
329.9955444 0.005568303238002379
330.0691528 1.0
330.1435547 0.005602938738184714
330.1623535 0.008632219758184035
330.2138977 0.001992652315148947
332.0848999 0.0005356912473812124


