PRECURSORMZ: 427.09539035999995
COMPOUNDNAME: casmi2022challengepriority94
FORMULA: C23H20O6
SMILES: CC(C)(C1CC2=C(O1)C=CC3=C2OC(=O)C=C3)OC(=O)C=CC4=CC=C(C=C4)O
INCHIKEY: YPULLITUOWRRPG-LJQANCHMSA-N
PRECURSORTYPE: [M+Cl]-
PRECURSORINTENSITY: 5464078.75
IONMODE: negative
CHARGE: -1
PARENTMASS: 392.12598835999995
NUM PEAKS: 15
51.04416275 0.01730905787127033
56.17972183 0.0153204956120423
77.58084106 0.020607997933068053
103.8371735 0.016919438181311267
119.0488968 0.3354071258937492
145.015213  0.030834178846499635
145.028183  1.0
163.0389404 0.6453704616084954
175.0386047 0.0673864353184483
215.9628448 0.10612488993843834
227.0695801 0.021918038078452457
245.0812988 0.49107771717434845
320.6931458 0.020358282093610975
345.5619507 0.021355791152512456
391.1180115 0.10982741842114319


