PRECURSORMZ: 358.1659969
COMPOUNDNAME: casmi2022challengepriority46
FORMULA: C20H25NO5
SMILES: CC1C=CC2CCCCC2C1C3=CC(=C(C(=O)O3)C=O)NC(C)C(=O)O
INCHIKEY: WOPHEEXRJKUYKQ-UHFFFAOYSA-N
PRECURSORTYPE: [M-H]-
PRECURSORINTENSITY: 154686381.9727
IONMODE: negative
CHARGE: -1
PARENTMASS: 359.1732729
NUM PEAKS: 72
50.00240326 0.04324509930726519
51.32194138 0.0027680816427999707
57.03347778 0.0023713320279164576
62.55453491 0.002200646601168933
65.00199127 0.03209020575660936
65.99725342 0.2426281351576057
67.00502777 0.016060897860689684
67.01757812 0.03390882735836176
68.0014801  0.003595421702180161
68.01288605 0.47792156387424867
68.02185822 0.008212007381809239
68.02662659 0.0027786800054432266
68.04921722 0.002826700618124152
68.98487854 0.006411252290086122
68.99687958 1.0
69.00623322 0.01545713106562459
69.03318787 0.01918465640808025
70.02852631 0.011221947696047088
70.04705811 0.0025203035129105537
71.01248169 0.029773717472983394
72.04434204 0.005556297629298247
81.02068329 0.004326631699404247
82.09701538 0.0027143275633079076
82.99962616 0.003323375822244088
83.0488739  0.0035480756835080327
92.99671173 0.005074743978081782
93.03317261 0.01965136832565904
94.02825165 0.015538801026364023
94.06439972 0.002677925106432735
95.01242828 0.004375270343341074
95.03614044 0.0029868347624021543
95.04875183 0.0028894007624307738
96.03286743 0.002892533673497027
96.03710175 0.0025510395464728736
96.04412842 0.17482918208332188
107.0487137 0.004797268073867751
108.0440063 0.01259326572434948
109.0154495 0.013340752485524406
110.0231323 0.0035419352975981236
110.0597153 0.04546286762009659
117.0695801 0.002962185047412417
120.0441284 0.013684206844658462
121.0281525 0.004318609770155377
121.0516052 0.003349463229323596
122.0235291 0.021347021171728542
123.0074997 0.01853699292410342
123.0316162 0.005262148689141033
124.015625  0.02023218528281994
124.039093  0.004434418679487941
133.7879028 0.00280755013360415
135.0436554 0.002959489998597989
136.002594  0.019200253088108042
136.0391846 0.016854937763829975
137.0472107 0.019198541565749842
138.0545959 0.06231741277187706
144.0792999 0.003294049365756129
162.0188751 0.0027621555299069127
163.0392914 0.013679882788560646
164.0340729 0.005915639467554391
166.050354  0.003444880600793218
170.0962677 0.002799843292161115
173.132309  0.0214386208900998
189.0909882 0.0038625476207805624
215.1434784 0.07940538508497115
217.1225586 0.020550009395006712
219.1384277 0.00387433230398528
225.1266937 0.00840364198861884
227.0748749 0.0027534450323220597
227.1444092 0.010979035293794978
243.1386414 0.12690175420873728
270.1133728 0.004644320726428222
286.180603  0.012120671280469569


