PRECURSORMZ: 339.04076435199994
COMPOUNDNAME: casmi2022challengepriority96
FORMULA: C12H16Cl2O4
SMILES: COC1=CC(=CC(=C1)O)CC(CC(C(Cl)Cl)O)O
INCHIKEY: MMMZDSQYAMMVEG-UHFFFAOYSA-N
PRECURSORTYPE: [M+FA-H]-
PRECURSORINTENSITY: 45066966.55859
IONMODE: negative
CHARGE: -1
PARENTMASS: 294.04256335199995
NUM PEAKS: 6
69.48286438 0.20070934712862568
81.97610474 0.19675483046331582
112.6979141 0.20797924056335235
156.923584  0.21674051521372745
191.2049408 0.23975560988617778
216.8813324 1.0


