PRECURSORMZ: 918.5268248320002
COMPOUNDNAME: casmi2022challengepriority17
FORMULA: C42H76O20
SMILES: CCCCCC(CC(CC(=O)OC(CCCCC)CC(CC(=O)OC(CCCCC)CC(CC(=O)O)OC1C(C(C(C(O1)CO)O)O)O)OC2C(C(C(C(O2)CO)O)O)O)O)O
INCHIKEY: BQIUFGZODBARSL-UHFFFAOYSA-N
PRECURSORTYPE: [M+NH4]+
PRECURSORINTENSITY: 2143752.861328
IONMODE: positive
CHARGE: 1
PARENTMASS: 900.4930018320002
NUM PEAKS: 27
67.05434418 0.4994119388714034
69.03341675 0.01233556137994163
69.06994629 0.05014452806496697
70.06517029 0.07000943449409192
71.04911804 0.02621123601673623
72.08068085 0.022274559040001893
79.05439758 0.08336171892795645
81.03354645 0.012183867661350047
81.06991577 0.1922544837634081
83.04914856 0.04348852443777922
83.08538818 0.062431297481286015
85.02851868 0.01509876607080939
85.06473541 0.021266841119237392
91.05413818 0.07177419020214804
93.06982422 0.022637772039081218
105.069931  0.0813630026467997
107.0854263 0.11587062521629013
109.0646057 0.014979441349558796
109.1011887 1.0
109.1085052 0.018522007376948004
123.1167297 0.020169495146897955
127.1116409 0.16273107273033205
133.1013031 0.10881932873466033
134.818512  0.01166047447757485
151.1110992 0.015093557043932601
221.1751862 0.013795536105713263
245.8819275 0.01088587429594815


