PRECURSORMZ: 385.1351469679999
COMPOUNDNAME: casmi2022challengepriority179
FORMULA: C13H24O10
SMILES: CCOC1C(C(C(CO1)O)O)OC2C(C(C(C(O2)CO)O)O)O
INCHIKEY: CMXKPYSXVVBBDY-KUBZZJBSSA-N
PRECURSORTYPE: [M+FA-H]-
PRECURSORINTENSITY: 16500295.38672
IONMODE: negative
CHARGE: -1
PARENTMASS: 340.1369459679999
NUM PEAKS: 35
51.77056503 0.013164318073182085
55.01771545 0.004610112930448977
59.0124855  0.07603658413831098
70.27037048 0.002643129743209171
71.01247406 0.1677115631968262
71.01605225 0.002376802615891835
73.02813721 0.08058380768651537
74.8126297  0.002540635818369118
75.26473999 0.0022606032458268727
76.43064117 0.002570787495404204
83.01237488 0.0201083985581057
85.02810669 0.07084197641416481
89.02309418 0.04646648820430785
95.01217651 0.002816846815942603
99.00740814 0.031012785097457432
101.0230331 0.22703669892771597
101.0295792 0.003265801975064928
111.0077972 0.0028423380971743222
113.022995  0.11651744850575682
115.0387039 0.003408914941857508
120.8452988 0.00256572331625427
125.0228882 0.004827416424247497
129.0175476 0.003952132088181286
131.0337067 0.005016165730929763
143.0338287 0.014001297938126768
159.0283966 0.029755674961701378
161.0444336 0.18887746479436696
201.5814514 0.002464488378814896
207.0317383 0.0033113085094470195
207.0398102 0.007712329971823415
207.0865784 1.0
207.1320801 0.004028169634140576
216.8445587 0.01666259415118623
339.1288147 0.0432371167121114
379.1169434 0.003609861177329589


