PRECURSORMZ: 233.117220372
COMPOUNDNAME: casmi2022challengepriority15
FORMULA: C14H16O3
SMILES: CCC1(C(=O)C=CC2=C1OC(=C(C2=O)C)C)C
INCHIKEY: QMMMQWRPZIJGPT-AWEZNQCLSA-N
PRECURSORTYPE: [M+H]+
PRECURSORINTENSITY: 83321530.31641
IONMODE: positive
CHARGE: 1
PARENTMASS: 232.109944372
NUM PEAKS: 21
51.23142624 0.0004829208778765358
51.26950836 0.010808375255826412
51.27257538 0.005561313522807413
58.2768364  0.0025242613253176607
58.28036118 0.0011343647471802629
60.23043442 0.0004886936422087936
71.90429688 0.0005352767831187253
129.7811584 0.0005332353223166991
142.1253967 0.0007404729947022476
177.0921783 0.0006989732910018458
190.0613403 0.0007103507695817813
191.106308  0.000638407583804906
204.0783081 0.01198827244164288
205.0392303 0.010252583076156155
205.0856934 1.0
205.1217346 0.032449045968770976
205.1451569 0.006181745300792338
218.6124725 0.0012544821521385254
233.0627594 0.0017395653124961802
233.1169128 0.24643756241207834
233.1877899 0.0009858175028977273


