PRECURSORMZ: 167.03498273600002
COMPOUNDNAME: casmi2022challengepriority187
FORMULA: C8H8O4
SMILES: C1CC(=C(C=C1)C(=O)O)C(=O)O
INCHIKEY: GOWHHUDNXNDUAS-UHFFFAOYSA-N
PRECURSORTYPE: [M-H]-
PRECURSORINTENSITY: 66949788.86523
IONMODE: negative
CHARGE: -1
PARENTMASS: 168.042258736
NUM PEAKS: 25
55.01799774 0.0005479599018340089
59.243927   0.0005450701536408527
79.05426788 0.0022888580801256305
91.33863068 0.0005472996024581027
93.03298187 0.0012808568822663662
95.04881287 0.010616821408864986
96.19560242 0.00063370638159568
116.9875336 0.0006257966110991567
121.0281525 0.0218037934724663
123.0114746 0.0031473874534974113
123.0226898 0.010026760317862886
123.0273438 0.005994990149857242
123.0437622 1.0
123.0605392 0.0058267426975309265
123.0665512 0.007416585869391849
123.0701904 0.010811517320732432
123.075943  0.0012243581006018574
124.0471191 0.010812455814458085
138.9279785 0.0008040833362446098
166.8312378 0.0012603532921461817
167.0005035 0.0009084272661525098
167.0338287 0.14631399180088772
167.0750732 0.0008362812626180257
168.0367432 0.0012822228059992471
178.8557129 0.0006380959586708917


