PRECURSORMZ: 393.1918739959999
COMPOUNDNAME: casmi2022challengepriority66
FORMULA: C20H28O5
SMILES: CC1=CC(C(C1=O)C=C(C)CCC=C2CCC(OC2=O)C(C)(C)O)O
INCHIKEY: IHDNCMDRDAONNT-UHFFFAOYSA-N
PRECURSORTYPE: [M+FA-H]-
PRECURSORINTENSITY: 116696745.7891
IONMODE: negative
CHARGE: -1
PARENTMASS: 348.1936729959999
NUM PEAKS: 31
52.1857338  0.0498469954800517
57.03328323 0.9236117064721437
67.02690887 0.048777460581548374
69.03314209 0.08835311200821348
71.23732758 0.04722781919904491
81.46867371 0.05572899921044281
95.04879761 0.3700540682515637
97.06442261 0.7832319146018706
108.1520767 0.06258954206606704
113.0952988 0.09516304276178926
133.0643768 0.10517606252036764
133.1011047 0.07563464867979874
139.1115875 0.21247342497279625
146.0018921 0.059719000391881674
147.0800934 0.05610443877581438
151.0748138 0.08511476666750356
151.4440765 0.05400732181412247
152.2071686 0.05478873929221316
157.0858459 1.0
159.0809784 0.07279467159316318
166.1894073 0.053583652757064344
171.0804291 0.09234417329382216
173.0960541 0.07870797988480677
183.1014404 0.5008375872549701
199.1126709 0.08770706248535272
221.3086243 0.07572601181590008
227.143219  0.3482014377615571
242.6875153 0.064538249692024
253.258667  0.05860101033595268
267.1748657 0.1132418598484349
285.1875916 0.08338621433820069


