PRECURSORMZ: 973.5013655920002
COMPOUNDNAME: casmi2022challengepriority39
FORMULA: C47H76O18
SMILES: CC1CCC2(CCC3(C(=CCC4C3(CCC5C4(CCC(C5(C)C)OC6C(C(C(CO6)O)O)OC7C(C(C(C(O7)CO)O)O)O)C)C)C2C1(C)O)C)C(=O)OC8C(C(C(C(O8)CO)O)O)O
INCHIKEY: WICIOAMNFCXLEV-MSGDGCCXSA-N
PRECURSORTYPE: [M+FA-H]-
PRECURSORINTENSITY: 21169216.73438
IONMODE: negative
CHARGE: -1
PARENTMASS: 928.5031645920002
NUM PEAKS: 32
71.0125885  0.1469478310430137
73.02810669 0.05701206301594862
83.01213074 0.01049040401991962
83.25737    0.005486556761916941
85.02800751 0.067674800681994
85.04792786 0.0349756743279185
89.02320862 0.057398003880615035
95.01226044 0.010870067511571125
99.00733185 0.011677421260075352
101.0230713 0.17461680868401921
113.0231171 0.10869145800402008
119.033371  0.02245000571314731
131.0332336 0.044057810430666706
143.0335541 0.00868423905953254
148.7298889 0.005507535241887905
159.0287933 0.009721219981813259
161.0442047 0.049855093708856074
191.355896  0.008122417967457772
191.373291  0.007906848854351773
219.4754486 0.006335946428861523
304.2718201 0.011640248012822166
304.3058472 0.0059970117304662
341.9375305 0.005175698188418177
453.3374634 0.0074120231861100035
585.3789062 0.07100920220542933
603.3896484 0.14160479152330468
721.4594116 0.008534057237350645
747.4316406 0.07345755283811681
765.4428101 1.0
765.5654297 0.015502242636505603
765.6077881 0.010824704647496455
807.4526367 0.011564263043276396


