PRECURSORMZ: 249.1485205
COMPOUNDNAME: casmi2022challengepriority169
FORMULA: C15H20O3
SMILES: CC1(C2C1C=C(CCC(=O)C(=C)CC2)C(=O)O)C
INCHIKEY: JSWXKFCFVRCREF-NEPJUHHUSA-N
PRECURSORTYPE: [M+H]+
PRECURSORINTENSITY: 5464648.568359
IONMODE: positive
CHARGE: 1
PARENTMASS: 248.1412445
NUM PEAKS: 60
58.09888458 0.009637047517254431
61.15545273 0.008321345354360419
63.25375748 0.009160782232065507
65.87460327 0.008693647617975035
67.05451965 0.03471294609731109
69.06996918 0.036725661592122046
70.00815582 0.008006927551318922
79.05404663 0.013249930404556697
81.03935242 0.010308435496190116
81.06997681 0.032046193202990396
83.04906464 0.15101977690411658
91.05444336 0.012444446324005315
93.06993103 0.02007379741742639
95.08553314 0.048010115462422044
98.50210571 0.009084303397367228
105.0697708 0.03742981289008738
107.0486221 0.011002566209073814
107.0853348 0.05473901954557476
109.1009369 0.04875676097610032
119.0854111 0.06271115650772173
121.065239  0.009850140767493997
121.1006012 0.0783144145155167
123.0700073 0.01441916764903244
123.0803146 0.5856913734938134
123.0884323 0.013816306338775449
123.1167831 0.13055259800281444
127.0387726 0.10293814791005094
129.0699921 0.01873110924391842
131.0855103 0.06515206218110574
133.1009369 0.03811830126301333
135.0802612 0.015820311430128294
143.085556  0.07100625653203448
145.1008759 0.06723612441726984
147.0803375 0.04893218924791835
147.1166687 0.0675411487447749
149.0960999 0.348217359421067
157.100769  0.020446679057839447
159.1165161 0.04789080773412546
161.0960693 0.05679228702705823
161.1323242 0.09468183540670636
162.103653  0.056694828826811844
163.1115723 0.057424180820900374
165.0913696 0.016259994776479242
171.1171722 0.014083068754188304
175.1117249 0.015364500998915941
175.1478729 0.07961284181299852
185.1324005 0.15417407976354122
187.147995  0.05859514961194395
189.0908508 0.013639077390203293
189.1280823 0.014223375599514532
193.0855103 0.04007650705737122
203.1428528 0.24905954855802595
204.1495819 0.009998546817648281
205.1584625 1.0
205.176651  0.019006403202148848
213.1271667 0.01677094037173366
218.1608276 0.019097170039295314
221.1541138 0.06954744720262133
231.137558  0.1169923015922398
249.1488495 0.136753149948755


