PRECURSORMZ: 522.3789192559999
COMPOUNDNAME: casmi2022challengepriority194
FORMULA: C30H48O6
SMILES: CC1CCC2C(C1(CCC3C(=C)CCC4C3(CCC(=O)C(O4)(C)C)C)O)(CC(C(=O)C(O2)(C)C)O)C
INCHIKEY: PXKWYQCTBMFQDW-UHFFFAOYSA-N
PRECURSORTYPE: [M+NH4]+
PRECURSORINTENSITY: 9691607.158203
IONMODE: positive
CHARGE: 1
PARENTMASS: 504.3450962559999
NUM PEAKS: 80
53.03886414 0.05148181768134884
55.01803207 0.16249453083732893
55.05466843 0.27160181892534596
59.04934692 0.32010661039728233
65.03863525 0.04267686920003401
67.05443573 0.4044990311006916
69.03363037 0.35891491385848745
69.07009125 0.28085575952306446
71.04901886 0.08271002304809971
76.05554962 0.03783209259845887
79.05425262 0.5121895246637499
81.06996918 0.7181580041495754
81.47198486 0.039018651511729716
83.04903412 0.22995560549565364
83.08568573 0.050290654455928264
88.32790375 0.03178341673061872
88.39591217 0.0325283617626666
91.05426025 0.5831350067272968
93.06994629 0.9181317158943763
95.04924011 0.3394171155532051
95.08560944 0.7039273522360541
97.06486511 0.3295922535852155
99.08023071 0.15752906191150823
105.0698624 1.0
107.0484848 0.03563147477645183
107.0855408 0.7693976970250849
109.0651779 0.349773583866949
109.1012726 0.23280597144544968
111.0802002 0.16426282675346343
116.5570526 0.040606959164759655
117.0697021 0.23579337986198026
119.0765686 0.05145873944188882
119.0855103 0.9238837653700674
121.0649338 0.15409943948617558
121.1010742 0.3678163795247352
123.0805664 0.15262888686629594
125.0589523 0.040928494185484596
128.0619049 0.04723145744476632
129.0697784 0.15845616566807216
130.076889  0.04623315855306661
131.0856171 0.491163774869687
133.101059  0.6737274388037905
135.0801392 0.12664154897142402
135.1165619 0.0637393034593921
137.0965576 0.04903448074347931
139.0755157 0.041769582989749525
141.070282  0.040934622154875165
142.0776215 0.13068927613091508
143.085434  0.3612121222143545
144.0927277 0.06488117954035455
145.101181  0.5929836604197565
147.0793762 0.03618354880669531
147.1171112 0.32428069775259954
149.0960999 0.08492049963261591
149.1315308 0.05160572735622658
155.0857697 0.14296317873228945
156.0935211 0.04884530719437175
157.10112   0.30719266506469056
159.1167755 0.3591383213519418
161.0950012 0.05961925425853266
161.1327362 0.08296627752438465
163.1112518 0.06699770281831716
167.0860748 0.037553770097472454
169.101593  0.14316836901967533
170.109436  0.06228176693989521
171.116394  0.2583029917720108
173.1324158 0.151999152993271
175.11203   0.052704627634440386
181.1012573 0.0693030595730918
183.1164856 0.17769714937799577
185.1318817 0.19520969897920698
187.1496124 0.03793454771238267
195.1164856 0.07828566915612034
199.1482849 0.04440042560514464
207.1184387 0.04735793099802477
216.4164429 0.14580031520300796
216.4379578 0.042057697572401596
221.1320953 0.05922042280561685
223.1495972 0.04066333448273358
376.4841309 0.038070129868675355


