PRECURSORMZ: 425.01095698000006
COMPOUNDNAME: casmi2022challengepriority35
FORMULA: C14H15BrClNO6
SMILES: C1=CC(=C(C2=C1NC=C2OC3C(C(C(C(O3)CO)O)O)O)Cl)Br
INCHIKEY: OPIFSICVWOWJMJ-AEOCFKNESA-N
PRECURSORTYPE: [M+NH4]+
PRECURSORINTENSITY: 8141917.25
IONMODE: positive
CHARGE: 1
PARENTMASS: 406.9771339800001
NUM PEAKS: 28
59.20745468 0.002616607711642931
61.02859116 0.14324620399563334
69.03363037 0.019593040555635988
73.02839661 0.040275551101865946
81.03330994 0.004072137402346474
85.02839661 0.09549907382067095
87.63793945 0.0027746816687124467
91.03910828 0.025537322250347903
96.04415894 0.006141407044381011
97.02848053 0.060681263857306704
109.028511  0.0031888132689350895
138.0108032 0.016180858757297644
139.0186005 0.015790162214977508
164.0496063 0.002438693229841573
166.0055847 0.004302680219891504
166.9785919 0.009469767949837758
167.0130615 1.0
167.04599   0.0042370103868449365
167.0576172 0.0036598504381170674
173.6719055 0.0024025135581115494
193.0272827 0.004360523412839908
220.0669403 0.004370619298275062
241.9363403 0.002984320458942959
245.9311371 0.06256224577696477
257.9324646 0.003023868240713315
270.9388123 0.003108070727821773
300.8478088 0.002753797961422542
307.9456177 0.0033694833571799995


