PRECURSORMZ: 371.24391287199995
COMPOUNDNAME: casmi2022challengepriority7
FORMULA: C20H36O6
SMILES: CCCCCCCCCC(=O)OC(C(C(C)C)OC(=O)C(C)C)C(=O)O
INCHIKEY: RZCUHAHZISRSJD-UHFFFAOYSA-N
PRECURSORTYPE: [M-H]-
PRECURSORINTENSITY: 198371941.9531
IONMODE: negative
CHARGE: -1
PARENTMASS: 372.25118887199994
NUM PEAKS: 13
54.54650116 0.0011091089665313902
84.15945435 0.0012330558900542675
87.0435791  0.00477809908635114
129.0544891 0.006054907245984201
157.1222687 0.1209342054479645
171.1013641 0.008244230234587382
171.1379242 1.0
171.1645355 0.006609714177158272
171.1722565 0.007392238068142075
171.1876221 0.0023448330052107656
185.1537323 0.012607373794646019
199.1693726 0.014118917144870752
306.2084045 0.0012271089183139977


