PRECURSORMZ: 1103.5643597720004
COMPOUNDNAME: casmi2022challengepriority167
FORMULA: C53H86O21
SMILES: CC1C(C(C(C(O1)OC2C(C(COC2OC3CCC4(C(C3(C)C)CCC5(C4CC=C6C5(CCC7(C6CC(CC7)(C)C)C(=O)OC8C(C(C(C(O8)CO)O)O)O)C)C)C)O)OC9C(C(C(C(O9)CO)O)O)O)O)O)O
INCHIKEY: ULSOTXJNUTYKRK-NLUBGPCESA-N
PRECURSORTYPE: [M+FA-H]-
PRECURSORINTENSITY: 18926351.47266
IONMODE: negative
CHARGE: -1
PARENTMASS: 1058.5661587720003
NUM PEAKS: 65
159.0287781 0.0007839946245013161
161.0443268 0.005712660843568355
163.0599213 0.0005227609693184587
173.3318329 0.00037357966582684046
175.4377441 0.00035111557469367084
178.8554382 0.0006607842994641291
179.0544739 0.0038846151058809972
183.3561249 0.010104688847000417
183.3771973 0.0061711304500052895
187.3556213 0.0009490833064324927
202.1071167 0.00041362391960976004
220.8009796 0.0004621466452534621
223.866806  0.005854407906189651
223.8951416 0.003822765111785378
259.0803833 0.000921529780132439
302.8565063 0.0003773121316542195
455.1712646 0.0004347887261841815
455.1950684 0.00048319848890022115
455.352478  0.12116333377404473
455.556427  0.0005275988988412119
469.3658752 0.0019739820303570545
483.3473816 0.0009365917353872415
509.3629456 0.002616451449144429
523.8794556 0.0005293153001888639
525.3569946 0.0007372404770198648
551.3754883 0.00833178668320232
569.3845215 0.05986387429420544
587.1779785 0.0007126238379751489
587.3948975 0.1837983990286328
587.6131592 0.0006891082463286132
588.4011841 0.0004988774356079496
601.4088135 0.0015542117911541704
629.4024048 0.0026863043692114076
629.5105591 0.00047779899493539273
631.3857422 0.004426384215293038
673.6342773 0.00042810969694469117
715.4428101 0.06186158881098471
728.0060425 0.0013279996208264487
733.0661011 0.0038903993635361895
733.1375122 0.007007019791921892
733.4526978 1.0
733.6954956 0.007054611795337287
733.7572021 0.007354922386353624
733.8672485 0.002016107352544692
733.9216919 0.0019810352043251166
734.4562378 0.004712559479524247
738.9622803 0.0008091745647341946
747.4672852 0.0015480091265558324
749.4473267 0.13362554090887427
775.3405762 0.0005028825209497548
775.4621582 0.02025358750846405
791.4599609 0.0007034074227017706
888.1564941 0.0007240412067546016
894.979187  0.0022483744151893604
895.0831299 0.003958303158279787
895.1743164 0.0026672622881371436
895.5058594 0.6056307977387745
895.8344116 0.003346920105062412
895.9150391 0.0036578302063149234
896.0596313 0.0010245994081417044
896.5065308 0.004186007441603285
937.5189209 0.00577675610300594
1051.920532 0.0004948717548103428
1119.18103  0.00044187465022132283
1869.077148 0.000540304982838932


