PRECURSORMZ: 918.5268248320002
COMPOUNDNAME: casmi2022challengepriority17
FORMULA: C42H76O20
SMILES: CCCCCC(CC(CC(=O)OC(CCCCC)CC(CC(=O)OC(CCCCC)CC(CC(=O)O)OC1C(C(C(C(O1)CO)O)O)O)OC2C(C(C(C(O2)CO)O)O)O)O)O
INCHIKEY: BQIUFGZODBARSL-UHFFFAOYSA-N
PRECURSORTYPE: [M+NH4]+
PRECURSORINTENSITY: 3943538.236328
IONMODE: positive
CHARGE: 1
PARENTMASS: 900.4930018320002
NUM PEAKS: 85
127.111824  0.27002587117124005
133.1012115 0.054846077394778175
151.1114197 0.09610530471303025
157.0969849 0.07904389298504451
157.1330566 0.05858382157112708
159.0909729 0.013068181476912098
169.1223907 0.09846089015756898
171.1126556 0.09001858860419144
185.1279602 0.06577138385435012
187.1323853 0.11326313792122261
192.610321  0.014262492473784116
193.2374573 0.013936036004769312
225.1234894 0.4745023191817494
226.1263123 0.05358256363282345
228.1344757 0.10622126223362628
237.6382141 0.01354176002621484
256.1435242 0.2010359854443716
256.1999817 0.01753824562027526
266.1504517 0.03313016663491136
270.1813049 0.3208784645140749
271.1811829 0.02840086571329724
284.1393738 0.7522661691947649
284.1932678 0.11797819987958054
285.1426086 0.09709364283890744
285.1930542 0.02943970286750392
296.1962891 0.055794910721635095
299.1703186 0.0832498385597967
299.2081299 0.03086113789594372
313.1852417 0.08142699011741523
313.2234802 0.023131554884864042
327.2007141 0.05526013025524161
327.2396545 0.02484780206553643
338.2423706 0.033438207443401397
341.2160034 0.026168580158743092
355.2336121 0.3138889550457715
356.2347412 0.05519124004878617
369.1908875 0.2512894063471331
369.2485046 0.06589177197101409
370.1957397 0.01946766268116714
370.2450562 0.06161975656217083
381.2473755 0.02255835827012582
383.2076721 1.0
383.2603149 0.047834416251863014
384.2122803 0.1937588241094622
384.2602844 0.14887501352734153
393.2105408 0.025548423038410296
398.2383118 0.10546096949359901
411.2018433 0.3509870363151146
412.2028503 0.0503884397010656
412.256073  0.18911290044586954
423.2949219 0.022155962295904445
426.3070374 0.06484809056612603
428.3591919 0.013828107797034472
440.2240601 0.029361734587500694
440.2847595 0.0704719914043407
454.2424011 0.060099373469947995
454.3023376 0.09224618659541779
455.2427368 0.01632830424380385
466.3031616 0.018416559845063532
468.258728  0.4572812299831906
468.3254089 0.03227884833541623
469.2520142 0.0992299182175581
469.3244019 0.03385820789466097
470.312439  0.022318827374826652
483.2891235 0.022932919388848456
496.2545776 0.20616653003529434
497.3128357 0.11301175917696939
498.3170776 0.023325732952102555
508.3574219 0.017486217258088306
510.2711792 0.5455225335216924
511.2606812 0.11110240625813468
539.2772217 0.09435827336386021
539.3661499 0.04791108533255951
553.3729248 0.02015971481439234
568.3347168 0.018061824573047853
581.3111572 0.018328919385296877
582.3599243 0.03169897781871148
595.322876  0.4144018554289661
596.3178101 0.09860915556588996
624.4026489 0.028661701192202738
666.3587646 0.06953744926985782
667.3673706 0.019089024426931674
681.4251099 0.08219753282182224
766.4711914 0.029754905593780304
767.4735718 0.020201955113460447


