PRECURSORMZ: 515.1478198559998
COMPOUNDNAME: casmi2022challengepriority204
FORMULA: C27H28O8
SMILES: COC1=C(C=CC(=C1)CC2COC(C2COC(=O)C3=CC=C(C=C3)O)C4=CC(=C(C=C4)O)OC)O
INCHIKEY: GFXHOKACHHWSQG-HEKZAOSPSA-N
PRECURSORTYPE: [M+Cl]-
PRECURSORINTENSITY: 7743106.625
IONMODE: negative
CHARGE: -1
PARENTMASS: 480.17841785599984
NUM PEAKS: 15
56.18291855 0.011502726208895015
58.658741   0.011126495926403914
61.2122879  0.01254691885733389
85.10339355 0.012336004412198025
93.02711487 0.01308134765886426
93.03290558 0.11303031162285332
135.6959229 0.01676177347761118
136.014801  0.014156382020004984
137.0231018 1.0
151.0387573 0.1742888216138604
215.3368683 0.020951400044703344
215.3562317 0.09793043877867678
304.2774048 0.012936225402270936
327.1231995 0.018582287219136833
479.1705322 0.16866456841868815


