PRECURSORMZ: 447.2752129999999
COMPOUNDNAME: casmi2022challengepriority88
FORMULA: C26H40O6
SMILES: CC(C)C(=O)OCC1CC23CCC4C(C2CCC1C3)(CCCC4(COC(=O)C)C(=O)O)C
INCHIKEY: YXAGJAFSQKHJEB-JACRPAJASA-N
PRECURSORTYPE: [M-H]-
PRECURSORINTENSITY: 2642203.726562
IONMODE: negative
CHARGE: -1
PARENTMASS: 448.2824889999999
NUM PEAKS: 14
52.21074295 0.009466248650702195
59.01251602 1.0
59.01750565 0.01526953012447803
77.2623291  0.01125775498157717
83.63052368 0.011144912758745849
96.10547638 0.011978379126380874
167.960968  0.009375824064606948
171.1564941 0.010492493828142295
174.9546967 0.017371408461950125
215.4545441 0.04674504056110536
215.4788055 0.03198312643033318
304.286377  0.014003412964704835
311.1685486 0.048152602810696866
469.203125  0.011259186074066615


