PRECURSORMZ: 330.20636972399996
COMPOUNDNAME: casmi2022challengepriority207
FORMULA: C20H27NO3
SMILES: CC1=CC(=O)NC1=CC=C(C)CCC=C(CCC=C(C)C)C(=O)O
INCHIKEY: IGSZOCSRLTUKLJ-UHFFFAOYSA-N
PRECURSORTYPE: [M+H]+
PRECURSORINTENSITY: 29120452.25391
IONMODE: positive
CHARGE: 1
PARENTMASS: 329.19909372399997
NUM PEAKS: 187
51.56602097 0.0012630160332408598
55.05450058 0.004580056133621827
57.06991577 0.0016741288073742991
59.04943848 0.0054811496120044986
67.05426025 0.01012911954412225
68.3912735  0.0011603634114140627
69.0334549  0.0067531803022150136
69.06993866 0.03329444104791937
79.05415344 0.015317190756893667
81.06981659 0.08870080759209464
83.04925537 0.005534852839600512
83.08548737 0.005710816050718396
89.66454315 0.0015964737115624036
91.05454254 0.007072621092042641
93.06980133 0.05578216872482515
95.0488205  0.002193447189618401
95.0854187  0.033514200716763184
96.04439545 0.02096424269726376
97.06488037 0.008077250785398627
97.10123444 0.00173729823889825
98.05976868 0.009931944417652447
101.7000198 0.0012891560582578357
105.0698776 0.030355469761389454
105.2902603 0.001333012627580949
107.0490112 0.006703415094213423
107.0854797 0.02671089624091432
109.0648727 0.005994384889942409
109.1012039 0.006295716090815918
110.0512238 0.0025287805390996343
110.0599136 0.06245330720459352
111.0802689 0.002431420009758534
117.0699387 0.00793893314832477
119.0490723 0.0015468634684184012
119.0853958 0.03918148953397985
120.0808029 0.012331299481519129
121.0645676 0.011854447718076377
121.1010895 0.016722312499133637
122.0598984 0.03995129057505167
122.0965424 0.0021449654352144157
123.0697784 0.0019025890382595204
123.0802612 0.06507334434266286
124.0395508 0.0014587150650102912
124.0757141 0.0027396124524638626
125.095993  0.0018582304661020799
129.0693512 0.004595552240725879
131.0852661 0.019727127473282292
133.0648956 0.0013262038295677465
133.1008759 0.022257442893384407
134.0599365 0.0021979882184632
134.0845795 0.002062166301307306
134.0962067 0.07605076783384883
135.080368  0.018687750815497214
135.1163025 0.002894360151000412
136.0389557 0.008481541508568306
136.0753937 0.006214971164245322
137.0959015 0.024362759665741866
138.055191  0.002487321523196433
141.069397  0.0012718228082146167
142.0777283 0.0013955571824860928
143.0853882 0.03712734581162899
144.0812836 0.0017086038969890847
145.0644379 0.007155035511727834
145.1009369 0.03880075271185358
146.0598907 0.016361055242393466
146.0725098 0.04072488120267167
146.0957794 0.010314489699546311
147.067688  0.016704058263690567
147.0804596 0.024537739507928338
147.1166534 0.007222711893080902
148.0652008 0.005343761953404092
148.0754547 0.31681437915630706
149.095871  0.04184449652431602
150.055069  0.0025601888959552637
150.0914001 0.01750426081603133
155.0855865 0.00883080825295492
157.1011353 0.01602896507924168
159.0806122 0.01791936443223354
159.1165619 0.011371827513239258
160.0753632 0.03183834012740669
160.0884094 0.001602078573681311
160.1116333 0.04158381780264032
160.1254883 0.002037589651136539
161.0830231 0.0029167902018364888
161.0959625 0.015692429497816955
161.1320496 0.008277119668733308
162.0500336 0.006379154774251391
162.0585632 0.004670061086075269
162.074646  0.002726752357225847
162.0910797 1.0
162.1237488 0.010629957633452335
162.1392212 0.002139370986128109
163.0987701 0.09011829471586111
163.1118622 0.008618945828020844
164.1062775 0.013909556255227872
168.0927734 0.001437264596548327
169.1006165 0.010531008075339332
170.0957794 0.0014844580694940985
171.0808411 0.01267002823693336
171.116684  0.00816268612049962
172.0889282 0.0022455097019353147
173.0825806 0.007492929709912633
173.0973358 0.015916478578772847
173.131897  0.0106209282089092
174.091156  0.043746899263956265
174.6152039 0.001273250245653672
175.1126251 0.002620379632177357
175.1478577 0.027469222498737168
176.0706635 0.00556543004712828
176.1065979 0.02095689223222848
177.1274567 0.00492488351822719
181.1010895 0.0022743445251203966
182.1082153 0.004548037762384793
183.1164398 0.007035731693491891
185.0962677 0.0027279782551524563
185.1321564 0.036558704869931936
186.0900879 0.009644697695320682
187.1131592 0.0016502466118127792
187.1477966 0.0290916471914432
188.0918121 0.005636978561978709
188.1066437 0.3579871858538775
189.127121  0.005103953599611636
189.9317169 0.0017094819996274948
190.1207733 0.010996987875455635
193.101059  0.0022035629774515737
195.1165771 0.002766308438756743
197.0974731 0.008321792714474726
197.1322174 0.03153248929173712
198.0917664 0.002223573039515732
199.1118317 0.006184690444154326
199.1477356 0.00286322366895909
200.1059875 0.01369760295291854
201.1281128 0.02056598017331939
202.1219788 0.00875698250254287
203.1429749 0.06283473166552589
204.1387024 0.0015110095986259147
207.1169281 0.005460686677686982
210.0928955 0.0017460497301353933
210.1276703 0.001463759989968107
211.1115417 0.005626714341099286
212.1063538 0.011783291490562469
213.0914307 0.0017449720759271504
213.1264954 0.0019183909098657544
214.1220093 0.01880733483897353
215.1082764 0.0016832621729153626
215.142868  0.1347161485169927
216.1026001 0.0016778506145467584
216.1363831 0.01766759926644752
216.7814484 0.005069243364788376
216.8038635 0.0017112421807894632
217.1583862 0.0026526541640158746
218.1179657 0.002460209204928142
224.1066742 0.009451022105109693
225.0913544 0.013860065951286431
225.113327  0.002236326732493552
226.1220551 0.023331343866029204
228.1011047 0.006817959209920339
228.1386719 0.011161562258175304
229.1094971 0.006420412345306109
230.1174011 0.0065829768234097015
232.1308289 0.004180469829244562
235.1117401 0.0045677407346517325
235.1493225 0.0022769920859861854
238.1231232 0.008029107738545356
242.1172333 0.007322876178776493
243.1244354 0.001732374389110186
244.1309357 0.005253622956822148
249.1628876 0.0022990527581574394
251.131424  0.0015470474951032945
252.1382599 0.005771825819284984
253.1584473 0.006175979469080318
254.1557007 0.002098090506401693
256.1317444 0.001671606013571603
256.2044983 0.001458446692761479
262.1358643 0.002140820480263441
266.1564331 0.0020072324425880364
266.1906433 0.007333605767548373
267.1741638 0.007896534308899129
270.186615  0.006277893522905315
276.1735535 0.005904371607062902
277.1577454 0.006253899623903376
279.1604309 0.0017067626835008077
284.1663513 0.004167587582646308
284.2011414 0.018015629321219192
294.1847839 0.057863908876795385
295.1695251 0.006463751765565647
312.1959839 0.0202808372622248
330.204895  0.005599300423541884


