PRECURSORMZ: 501.1367316519998
COMPOUNDNAME: casmi2022challengepriority134
FORMULA: C23H26O11
SMILES: C=CC1C2CCOC(=O)C2=COC1OC3C(C(C(C(O3)CO)O)O)OC(=O)C4=CC(=CC=C4)O
INCHIKEY: RBTWPFBRVJRSRZ-XRNSGXKGSA-N
PRECURSORTYPE: [M+Na]+
PRECURSORINTENSITY: 2925797.657227
IONMODE: positive
CHARGE: 1
PARENTMASS: 478.1475136519998
NUM PEAKS: 14
65.03882599 0.06609720107681545
69.0335083  0.1924578831610462
81.03395844 0.016935676378632046
95.04904938 0.024808886619549525
105.9959717 0.020859387028302617
111.0443573 0.09997506480640081
118.717659  0.019457563574284284
121.0284042 1.0
121.0391617 0.09074688592483629
127.039917  0.022327037654548163
146.0469055 0.018884459096137052
220.0577087 0.024977307365692855
233.2817993 0.016426464084953702
276.038147  0.016147675493976225


