PRECURSORMZ: 319.22677081999996
COMPOUNDNAME: casmi2022challengepriority219
FORMULA: C20H30O3
SMILES: CC1(C2CCC34CC(CCC3C2(C=CC1=O)C)C(C4)(CO)O)C
INCHIKEY: JZXWITIZXDCGSC-UHFFFAOYSA-N
PRECURSORTYPE: [M+H]+
PRECURSORINTENSITY: 17948043.58594
IONMODE: positive
CHARGE: 1
PARENTMASS: 318.21949481999997
NUM PEAKS: 105
53.03883743 0.004880645590303381
55.05450439 0.032328793584784125
57.03364563 0.024052474199999944
57.07012177 0.005275570179402547
57.74843979 0.003985626585027744
57.75137329 0.005109443187626482
59.04941177 0.0349800058100366
63.10698318 0.002895704302368055
64.66983032 0.0036790929252942563
65.9187851  0.0027843848543623317
67.05033112 0.005544840972085056
67.05434418 0.14023251170530773
69.03357697 0.10577274472947687
69.06975555 0.020709453421934042
74.55771637 0.0027226952053955008
79.05419922 0.09195598037886961
81.06987    0.08558698839204279
83.04905701 0.006255240647024498
83.0856781  0.012587746002007308
85.06480408 0.003948646310517547
89.7365799  0.0029687584640180377
90.28145599 0.003228406801831937
91.05425262 0.2748161751757029
91.05977631 0.005248692244270394
93.06995392 0.10941992863685891
95.04907227 0.013963122522034887
95.08554077 0.05820305686960751
97.06519318 0.004870372099454753
103.0540161 0.006356297610707036
105.0698776 0.15942922166642107
105.0759506 0.002569185544061238
107.0490189 0.004185820148865986
107.08564   0.07799640415933251
109.064949  0.017982266453505195
109.1009979 0.029125254101048992
111.0803604 0.0317796912382563
115.0543289 0.014581565978854509
116.0612717 0.004142822056569807
117.0697937 0.09863245066047606
119.0854874 0.28823696876696764
121.0647507 0.01163963399446215
121.1011734 0.0452716001917143
123.080513  0.02737571184923434
123.1169205 0.0043242508703432575
125.0960922 0.006565751789890029
128.062088  0.04445908527567102
129.0587921 0.006007346728057659
129.0697632 0.1739197614785557
129.0783539 0.004208682903516481
130.0774231 0.014953634967544663
131.085434  1.0
131.1090088 0.005907527448161259
133.1010895 0.26604429138545144
135.0803528 0.015362283042892553
135.1167145 0.01850507751270699
137.0960236 0.058151172108668533
141.06987   0.028323518976024722
142.0773621 0.014542949584337246
143.0719452 0.004689088021490937
143.0854492 0.4277712000825014
144.0937042 0.004906635298832273
145.1010895 0.07838533074239137
147.0804291 0.0049037235225263456
147.1164398 0.02757226417929288
149.0960693 0.0487549277535192
154.0773315 0.006162135897974743
155.0850372 0.03644230856605648
156.0931854 0.014546580637080938
157.1010742 0.05674919171599234
159.1165314 0.05417932651898504
161.0953674 0.005076924958530934
161.1322937 0.05437382943400607
165.0705109 0.004277794527752843
167.0857086 0.0068294505290670045
168.0934143 0.012676510327748617
169.1010284 0.040891258416734036
170.1091156 0.005955300171194672
171.1165314 0.09876585855406729
173.1325073 0.02033491016632427
175.1122742 0.005079526901145693
179.0869598 0.003915897219550914
181.101059  0.022665821494655864
182.1089172 0.007303402521174146
183.1162567 0.04324522401325883
185.0961609 0.0034689348788092297
185.1325226 0.025300537139574156
189.1278992 0.0360893711198916
193.100647  0.01323713320445778
194.1078491 0.006624941031439286
195.1164703 0.024678151145340797
197.1328888 0.02835817852464518
199.1482544 0.01713574247449515
207.117691  0.005320504319524175
209.1319885 0.015736841707637943
211.1477051 0.006849309602924066
213.1266785 0.012808518191303485
223.1475525 0.004453048680752577
225.163147  0.005871833836475365
225.8250427 0.0032691114093889853
235.149353  0.004081367121758024
237.1633911 0.006136330548746968
239.1784058 0.0038319199068879363
241.1594696 0.012117737647966444
272.1765137 0.004536832828893971
285.2563782 0.0029995866411317343


