PRECURSORMZ: 253.144533184
COMPOUNDNAME: casmi2022challengepriority126
FORMULA: C14H22O4
SMILES: CC(CCC=C(CCC=C(C)C)C(=O)O)C(=O)O
INCHIKEY: NLMAGFGYJVPKJJ-NSHDSACASA-N
PRECURSORTYPE: [M-H]-
PRECURSORINTENSITY: 396607469.9063
IONMODE: negative
CHARGE: -1
PARENTMASS: 254.151809184
NUM PEAKS: 21
52.28735352 0.007589888988834974
52.28996277 0.005930967635012235
54.47612    0.002747514200738968
55.01731491 0.0038127112027240002
73.02809143 0.5044548132349164
73.03220367 0.008526554790971646
73.03488922 0.00505670882665781
73.04012299 0.0041541058227897686
81.03343964 0.003964002646375602
83.04863739 0.012759320922453568
85.02816772 0.025228908944768043
97.06416321 0.015516809241177225
121.0643082 0.004890523230318734
123.0801392 0.047992938641363704
141.0913544 0.003731591930995122
167.1066895 0.0035700034478378987
179.1069336 0.005050300099644906
191.1433258 0.05586050218287236
209.1538391 1.0
209.2142181 0.0050923669536343304
216.4995117 0.014946441875244408


