PRECURSORMZ: 305.247506264
COMPOUNDNAME: casmi2022challengepriority54
FORMULA: C20H32O2
SMILES: CC1CCC2(C(C1(C)CCC(=CC(=O)O)C)CCC=C2C)C
INCHIKEY: NLVMTSRTOGOFQD-UHFFFAOYSA-N
PRECURSORTYPE: [M+H]+
PRECURSORINTENSITY: 26156145.04688
IONMODE: positive
CHARGE: 1
PARENTMASS: 304.240230264
NUM PEAKS: 131
51.32760239 0.004637819182926227
55.05455399 0.06937113038137194
57.07012558 0.07604605073052259
57.37566757 0.004021992478390749
60.62333298 0.003923867204702693
64.80782318 0.004640233886144227
64.81095886 0.008366947460673546
64.9078598  0.00426710551774668
67.05437469 0.05981536861556359
69.03327179 0.005223655759675916
69.06995392 0.1995809319839103
69.07609558 0.005999470732707992
71.08540344 0.03902600881049684
73.06463623 0.00552666495504732
79.05370331 0.018073183321208604
79.05876923 0.004701765466987697
81.06987    0.2924556814770884
83.08552551 0.16888307251167717
83.09078217 0.0076492530976137
85.10083008 0.007464366240818034
86.4871521  0.00426137181305857
91.05416107 0.007481455533055492
93.06993866 0.07935699454667315
95.08551788 0.6161111695393662
95.09545135 0.008116868478810437
97.06427002 0.01821232370656957
97.10121918 0.15771362130649588
97.62630463 0.004385725382421531
99.07965088 0.022954935337035264
102.7733154 0.00438801408350865
105.0699844 0.043387358250114555
106.5280228 0.004663723357363983
107.0854568 0.20846749359588296
109.064003  0.008972776240492357
109.1011124 0.5361333985517123
109.1093521 0.009213195599180456
111.0800705 0.009947750749005285
111.1168289 0.09942070200200094
114.4375534 0.004192898770766318
115.0746613 0.005796433491774166
119.0854721 0.09309301921681107
121.1010666 0.30060520436025523
123.0794601 0.02346363065415237
123.1166687 0.37501921390694803
125.0588684 0.019795007708380913
125.0953903 0.01719349721525405
125.1317291 0.020960361308055817
127.0755005 0.005049861952227372
133.0903168 0.004655456645206252
133.1009674 0.10983470439209687
135.116745  0.3045826905360955
135.1284332 0.011125652702382857
137.0959167 0.04566528878839229
137.132309  0.23338684186015926
139.0753937 0.03766701383940638
139.1117554 0.040709941804420786
141.0901031 0.009516982280369745
145.1000671 0.021648060681511316
147.1045074 0.005323456740160727
147.116684  0.14730528455562822
149.0949554 0.018228325572055833
149.1323853 0.4366709108397966
151.0748749 0.007153364620886103
151.1109924 0.02288905607494471
151.1478882 0.11318365466453503
153.0904083 0.033315929319374445
155.1056366 0.025948381333354906
157.100708  0.011090226251144277
157.1221924 0.008325202265913502
159.1168823 0.0637501226474762
161.0951538 0.00821698547750163
161.1323853 0.16476487882429353
163.1107941 0.030166371949708
163.1321564 0.010043206884304047
163.1479492 0.575009122068103
163.1639709 0.011718234647232751
165.0898285 0.01816205250266194
165.1269684 0.01007101891737491
165.1631775 0.03605512003168817
167.1064758 0.049452985773722515
171.1157379 0.005490439544958758
173.1321869 0.056680228158532936
175.1115265 0.01981160595694384
175.1480408 0.2573073781195243
177.1273651 0.0655592896050741
177.1635437 0.171782129541872
179.1067963 0.04747774233533656
179.1432343 0.006000530609154013
181.1223602 0.061073192383638404
185.1318665 0.018318784568178204
187.148407  0.03636875270576409
189.1261444 0.020913161152871756
189.163559  0.31080019154787236
189.1832581 0.008859388908042293
191.1428375 0.07029084383952877
191.1790619 0.0803389198351203
193.1217957 0.06838279397485068
195.1375275 0.05361686759071816
199.1472321 0.030303115458519016
201.1634674 0.07236773493914922
203.1446228 0.05183813885851657
203.1792145 0.2072142593845285
205.1579895 0.02722788232978138
205.1943054 0.08167245184180726
207.1375732 0.0503103318233951
209.1535492 0.049855340154088795
213.1643219 0.05880317688597591
215.1770172 0.005437868700872379
217.158905  0.055294545044761924
217.1944733 0.042481458839092115
220.0211334 0.008416863751826311
221.1532288 0.0899258620639584
223.1694489 0.04740698018680585
227.1797485 0.026615276985193313
229.1941528 0.009623023404976054
231.1737823 0.06470077023652242
235.1692963 0.150941172877037
237.1850281 0.006508674515016179
241.1945953 0.006750748917772112
242.526947  0.004624000273973282
243.2101593 0.02568974555082667
245.1936188 0.01569112235301854
245.22612   0.34146434241142465
245.2496796 0.005422876473040353
249.1851501 0.07871270635113749
259.2418518 1.0
263.201416  0.009518200165919042
268.6200562 0.0057003599055184834
269.2261658 0.23212217265155236
287.2367249 0.41026573896426827
305.2475586 0.2732681450328965


