PRECURSORMZ: 429.2271647439999
COMPOUNDNAME: casmi2022challengepriority121
FORMULA: C25H32O6
SMILES: CCC(C)C=C(C)C=CC(=O)OC1C=CC2=CC(=O)C(CC2(C1C)C)(C(=C)C(=O)O)O
INCHIKEY: OFDBBWUQAHAKDG-PREJITOJSA-N
PRECURSORTYPE: [M+H]+
PRECURSORINTENSITY: 1480554.666016
IONMODE: positive
CHARGE: 1
PARENTMASS: 428.2198887439999
NUM PEAKS: 24
55.63002777 0.053790476096230416
56.43317032 0.04879415666140632
57.06996536 0.05281381063205356
59.63805008 0.05126575232416617
67.05443573 0.10450787706170125
81.06986237 0.5377662646570384
95.04898834 0.06308021472999685
95.08573914 0.07636919161159558
108.5819092 0.05989797086494686
109.1013184 0.09401343648062009
123.1165161 0.7077244863626795
129.0697174 0.12432806351668278
131.0494537 0.05582892220277046
157.0646515 0.3029819887331749
157.1016083 0.0584130095665457
167.0578613 0.05642364890759411
169.1008911 0.48737547027569716
171.0814819 0.05880279749941917
182.0725403 0.34408804298738194
197.0956726 1.0
220.0624847 0.06932638572772974
225.0899658 0.056275155589061356
307.5482178 0.05101340926715373
454.3303528 0.06439495691725847


