PRECURSORMZ: 414.0214571839999
COMPOUNDNAME: casmi2022challengepriority77
FORMULA: C16H17BrClN3O3
SMILES: C1CC(C(NC1)CC(=O)CN2C=NC3=CC(=C(C=C3C2=O)Cl)Br)O
INCHIKEY: LVASCWIMLIKXLA-LSDHHAIUSA-N
PRECURSORTYPE: [M+H]+
PRECURSORINTENSITY: 1705822.716309
IONMODE: positive
CHARGE: 1
PARENTMASS: 413.01418118399994
NUM PEAKS: 24
67.04165649 0.024046366469844305
67.05453491 0.014445706764925294
80.0497818  0.01653911632640129
82.06517029 0.19562488205335088
91.05435181 0.013906973747477213
93.93881226 0.009704965462113559
95.04915619 0.058455348082455866
96.08041382 0.018285814826656453
100.0679779 0.019485254338176633
100.075676  1.0
100.0832748 0.01851907176128389
110.0961685 0.1373555471368486
111.9657898 0.011921019454205173
120.0806427 0.36287363662148814
121.0646896 0.2718336551087426
138.0911713 0.19225882947202844
151.0068207 0.010993942018204295
220.0447693 0.013606102748552548
240.9155121 0.023867190854770185
258.9270935 0.05499630657484061
270.9273071 0.014861788730501483
311.9251404 0.01150064139670303
534.4502563 0.013429228020112234
727.6185303 0.010917905715638002


