PRECURSORMZ: 1094.5952983160005
COMPOUNDNAME: casmi2022challengepriority172
FORMULA: C49H88O25
SMILES: CCCCCC(CC(CC(=O)OC(CCCCC)CC(CC(=O)OC(CCCCC)CC(CC(=O)OC)OC1C(C(C(C(O1)CO)O)O)O)OC2C(C(C(C(O2)CO)O)O)O)O)OC3C(C(C(C(O3)CO)O)O)O
INCHIKEY: IESDYJUGZCFEQG-UHFFFAOYSA-N
PRECURSORTYPE: [M+NH4]+
PRECURSORINTENSITY: 484814.59375
IONMODE: positive
CHARGE: 1
PARENTMASS: 1076.5614753160005
NUM PEAKS: 18
81.06975555 0.15730265177126443
83.04904938 0.041173325551097914
91.74459839 0.019483305230940048
93.06989288 0.04513257755880394
105.0700378 0.09727068427071188
107.0858536 0.17657982424677426
109.0947952 0.02784719638777648
109.1010895 1.0
123.1166611 0.21984149236446793
127.1116104 0.5417723368675077
133.1010284 0.5141546492865335
137.7499847 0.023393222849200073
151.1115875 0.5396571543589033
169.1214142 0.03459744388713922
183.1381073 0.12421316744629077
201.1484833 0.021418761418750914
220.0485077 0.028748772924036783
269.414917  0.01935820500737029


