PRECURSORMZ: 395.2329188199999
COMPOUNDNAME: casmi2022challengepriority111
FORMULA: C24H30N2O3
SMILES: CCC1CC2CC3(C1N(C2CC(=O)C)CCC4=C3NC5=CC=CC=C45)C(=O)OC
INCHIKEY: UMPABASQXRRHQB-YSGOIBPISA-N
PRECURSORTYPE: [M+H]+
PRECURSORINTENSITY: 332611802.4375
IONMODE: positive
CHARGE: 1
PARENTMASS: 394.2256428199999
NUM PEAKS: 40
58.06525803 0.009458404711497542
66.00911713 0.0004642120574553819
67.91116333 0.000531981436795309
75.14485168 0.0004941153943340552
75.45896149 0.00046230502734591745
76.29203796 0.0005084805655271749
80.13438416 0.0004365917381121688
84.29355621 0.011120589199810377
84.30010223 0.007199383454272185
100.3541946 0.0004742101560016915
122.0963058 0.013778700250766305
144.0807648 0.0035375678934283605
167.0762329 0.0007366399099557725
168.0819397 0.0010483651033501948
170.0955811 0.0006149802796778286
183.225708  0.0005054498869733504
196.0756683 0.0006670917055374641
206.1172943 0.0007883764531516827
218.6188354 0.0018303105775032188
228.0759277 0.0008082037268323987
228.1015778 0.02532241550441467
230.1175537 0.005021916799995691
233.7652588 0.000580495546271905
240.0994568 0.0037506876882094048
266.118103  0.0010859815221460855
267.1126099 0.0006313674288642522
277.1698303 0.002094940912684304
278.1800232 0.0031127926925594326
281.127533  0.0022374933335488146
305.1644287 0.08457893616906659
337.0406799 0.000703153723819028
337.066864  0.004572183020346817
337.0932922 0.004783901766138199
337.1905823 1.0
337.2661133 0.007860240039379199
337.2860107 0.009894340957329325
337.3395081 0.0016739714600134137
395.1732788 0.0007468614335193206
395.2325439 0.040277115621851954
395.2760315 0.0009391553547427423


