PRECURSORMZ: 657.397303436
COMPOUNDNAME: casmi2022challengepriority122
FORMULA: C36H58O9
SMILES: CC1CCC2(CCC3(C(=CCC4C3(CCC5C4(CCC(C5(C)C)O)C)C)C2C1(C)O)C)C(=O)OC6C(C(C(C(O6)CO)O)O)O
INCHIKEY: RRIMLWHUVCZACL-WHGXRBQASA-N
PRECURSORTYPE: [M+Na]+
PRECURSORINTENSITY: 2028080.75
IONMODE: positive
CHARGE: 1
PARENTMASS: 634.408085436
NUM PEAKS: 9
69.77095795 0.04608572783182698
71.51753998 0.04270503996507386
80.37238312 0.05518248729889399
128.5528717 0.04885849582245818
185.0415649 1.0
495.3424072 0.6154492981637192
619.2119141 0.05490051644751864
657.3936157 0.24791836933503864
682.765625  0.053782214324615996


