PRECURSORMZ: 287.150012488
COMPOUNDNAME: casmi2022challengepriority139
FORMULA: C14H24O6
SMILES: C(CCC(=O)O)CC=CCC(C(CCCC(=O)O)O)O
INCHIKEY: JDJWBXPQIRDCOI-UHFFFAOYSA-N
PRECURSORTYPE: [M-H]-
PRECURSORINTENSITY: 154101659.8594
IONMODE: negative
CHARGE: -1
PARENTMASS: 288.157288488
NUM PEAKS: 35
57.03328323 0.08717110568247216
58.00465775 0.03424986664773811
59.00960541 0.018395253540121472
59.01247787 1.0
65.03807831 0.008838235704481908
65.74861908 0.00858028955159829
69.03334045 0.08306318934330634
71.00271606 0.008387526368062287
71.01245117 0.8724156434210385
71.04881287 0.26914316724301157
73.02809143 0.8483520412003139
81.03314209 0.14134727906920155
83.04878235 0.19935931497291434
85.02799225 0.04528646173743232
87.04357147 0.010916193877106404
95.04833984 0.00959298855168798
97.02805328 0.1140773073884757
97.06432343 0.011892550252281755
99.04363251 0.1463075287422666
101.0592499 0.08423963710925542
109.0647659 0.012701318855815312
111.0434494 0.01388689579630381
115.038887  0.10453038359049577
121.0641403 0.01898192126356193
123.0800629 0.12720235478060696
125.0962296 0.009309748727627378
126.5904922 0.008109489952443765
127.0388489 0.04621575865465198
141.0907135 0.29682798806680283
145.0494537 0.07796183313612548
207.1387482 0.015912155643115464
215.1050568 0.07458326931858886
224.2401428 0.008981853866823018
278.6217651 0.008963860772210216
304.2723999 0.010006723625996012


