PRECURSORMZ: 1102.5792543280004
COMPOUNDNAME: casmi2022challengepriority5
FORMULA: C54H84O22
SMILES: CC1C(C(C(C(O1)OC2C(OC(C(C2O)O)OCC3C(C(C(C(O3)OC(=O)C45CCC(=C)CC4C6=CCC7C8(CCC(C(C8CCC7(C6(CC5)C)C)(C)C)OC9C(C(C(CO9)O)O)O)C)O)O)O)COC(=O)C)O)O)O
INCHIKEY: XPCKJVBBSBPFQL-DCULSWDLSA-N
PRECURSORTYPE: [M+NH4]+
PRECURSORINTENSITY: 1745385.125
IONMODE: positive
CHARGE: 1
PARENTMASS: 1084.5454313280004
NUM PEAKS: 37
79.05418396 0.030440070934323504
81.02872467 0.021799626779488653
81.03356934 0.3950342200892275
81.06978607 0.09876575974802008
83.04914856 0.2538165397028069
83.06472778 0.015666753022945883
84.87761688 0.01459951372817273
85.02240753 0.02266211595668085
85.02839661 1.0
85.03282166 0.014026192767230874
90.84404755 0.014665273224682395
91.05403137 0.0605001646345323
93.06986237 0.08741524491665993
95.04898071 0.026099040299096196
95.08546448 0.14903931401369977
97.02835083 0.16420569392355006
99.04403687 0.07023905437110448
105.06987   0.19263554158787755
107.0855942 0.0687406417162736
109.0284042 0.28048935125820185
109.1010666 0.07194221878095412
111.0439911 0.07991665809085982
119.0852127 0.12449335058834576
121.1011963 0.07129029589991898
127.0390015 0.1637023586857239
129.0695038 0.020902030938821516
131.0854034 0.08431947907370388
133.101593  0.031598410710864874
135.1168365 0.025076067494080072
143.0854034 0.03137635778950841
145.1009064 0.03491625567417998
149.1312103 0.01884025949378497
157.1009064 0.020380584003014773
159.1159821 0.02522691480126275
173.1317596 0.0270904891542417
185.1320038 0.027613624288277894
216.4496002 0.0778317218152178


