PRECURSORMZ: 791.2615292520001
COMPOUNDNAME: casmi2022challengepriority106
FORMULA: C33H46O19
SMILES: CC1C(CC2C1C(OC=C2C(=O)OC)OC3C(C(C(C(O3)CO)O)O)O)OC(=O)C4=COC(C(C4CC=O)C=C)OC5C(C(C(C(O5)CO)O)O)O
INCHIKEY: GXXXVFMBJGIYPK-IRWFNEAJSA-N
PRECURSORTYPE: [M+FA-H]-
PRECURSORINTENSITY: 7328513.222656
IONMODE: negative
CHARGE: -1
PARENTMASS: 746.2633282520001
NUM PEAKS: 29
57.72953415 0.03772212947456386
58.8072052  0.02894085546564923
59.01255417 1.0
68.99684143 0.1362131456243119
69.03336334 0.1469519657005161
71.01247406 0.645521776298951
87.0074234  0.27066986761767264
89.02300262 0.7249451699138019
97.0279541  0.23253784906087088
101.0230865 0.6973861718106162
113.0230484 0.3555747879074195
119.0334778 0.2265453702877622
123.0439911 0.24588058705428442
136.8167419 0.03318259452313676
141.0180817 0.5036474603853612
149.0233154 0.14820508144281558
149.0597687 0.2732130164137218
156.4918518 0.0294421092660876
175.0389252 0.03541776843331283
193.049408  0.2609709320443089
195.7533875 0.03056404708953122
209.0811615 0.2846670625022839
215.2229309 0.23245446621056778
227.0916748 0.05989727326636691
304.2984619 0.0416766150817272
328.8647156 0.03814182471765621
513.1606445 0.4583556219100042
632.5897827 0.032868175990676665
681.8639526 0.03229024091997316


