PRECURSORMZ: 424.1602122839999
COMPOUNDNAME: casmi2022challengepriority245
FORMULA: C20H22O9
SMILES: C1=CC(=CC=C1COC(=O)C2=CC=C(C=C2)O)OC3C(C(C(C(O3)CO)O)O)O
INCHIKEY: VKSWFQCTDQBTII-STEXWYFWSA-N
PRECURSORTYPE: [M+NH4]+
PRECURSORINTENSITY: 4047335.72168
IONMODE: positive
CHARGE: 1
PARENTMASS: 406.1263892839999
NUM PEAKS: 10
63.35596848 0.0029804852247854777
107.032196  0.009349625630453598
107.0490875 1.0
107.0711365 0.0062937381334703885
134.7960205 0.0035892923739960295
140.0153961 0.0033327974015732453
143.3728943 0.002957075731012755
149.41539   0.0028491703794388166
215.7755432 0.005957430454431524
215.8023071 0.014573584496904834


