PRECURSORMZ: 554.2748481119999
COMPOUNDNAME: casmi2022challengepriority210
FORMULA: C31H36O8
SMILES: CC1C(C(OC1C2=CC3=C(C=C2)OCO3)C4=CC(=C(C=C4)OC(C)C(C5=CC(=C(C=C5)OC)OC)O)OC)C
INCHIKEY: BYTPMMJRDFCGKX-RYXVVOBLSA-N
PRECURSORTYPE: [M+NH4]+
PRECURSORINTENSITY: 7688522.231445
IONMODE: positive
CHARGE: 1
PARENTMASS: 536.2410251119999
NUM PEAKS: 72
51.38520813 0.0226191150655912
53.07085037 0.02562438000512456
54.98875046 0.0229538763656987
59.0494194  0.030569388356384584
69.08331299 0.023283627583237456
70.54303741 0.023290493420403884
94.80914307 0.022996504140406597
95.04920959 0.037082188678426914
105.0699234 0.028642803518307412
107.0490799 0.13607872758694192
119.2322998 0.024415983567038103
123.0438995 0.034160689681371766
131.0489044 0.10029088225557292
133.0645599 0.03458261459230054
135.0439301 0.9767350959799916
135.0804138 0.032573366803141275
137.0595245 0.04083423792273136
139.0754242 0.13202490444501258
143.0858154 0.14892986455684107
145.0648193 0.2903271120434034
147.0802307 0.1413919167405148
149.0231476 0.1545047423990657
149.0595856 0.14132744746194995
151.0380859 0.03864651702880444
151.0752716 1.0
154.1829376 0.026329664542882887
159.0807343 0.10000777961436837
160.0883026 0.034337482145639475
161.0597229 0.050064711254409325
161.0959473 0.04120884563986137
162.0669556 0.10811552596342591
163.0754395 0.2550777812248723
165.0547791 0.22092279980825325
165.0906677 0.1799045101459198
167.0695801 0.04356268386070604
171.0802612 0.15990544311744648
175.0749969 0.33466816669857835
176.0828705 0.1057331373219831
176.62117   0.028010598414632253
177.0912323 0.09068294025176113
178.098526  0.24784264889392296
179.069931  0.03728106598692172
179.1067505 0.027074206477514826
186.0674744 0.11166446559616552
186.1043243 0.04415373260293744
187.0748901 0.03461573844732701
189.0903473 0.0881918626107003
191.1062469 0.20833750878117605
195.0811615 0.03202461380109388
197.0598602 0.12458882300111032
201.0908203 0.3766102946639923
202.0993805 0.2474966962110076
203.1062317 0.053159354884393405
211.0745239 0.03842486351652688
213.0909576 0.2335711319106027
215.1079712 0.026442092342203186
217.1220856 0.32203549934826625
219.1016083 0.1464069206983663
220.1588287 0.03228564524332618
225.0909729 0.1385690229000845
226.0994873 0.03902697856006735
233.0934601 0.027286528910000808
235.1326294 0.05115285206557541
240.1127014 0.03284820269439557
241.0849609 0.027250703294604592
241.1221466 0.1288406114936998
253.1226501 0.03308863207671093
269.1537476 0.0347485295146127
279.1420288 0.029217004919787837
281.1186523 0.03750209636591603
297.112915  0.029687743454080373
297.1481323 0.04179767930246333


