PRECURSORMZ: 442.15301382399986
COMPOUNDNAME: casmi2022challengepriority68
FORMULA: C20H27NO8S
SMILES: CC(=O)NC(CSCC(=O)C12CC(CC1C=C(C2CC(=O)O)C(=O)O)(C)C)C(=O)O
INCHIKEY: AGBBJVFSJVBRRY-UHFFFAOYSA-N
PRECURSORTYPE: [M+H]+
PRECURSORINTENSITY: 5045597.267578
IONMODE: positive
CHARGE: 1
PARENTMASS: 441.14573782399987
NUM PEAKS: 86
53.49068451 0.01875580210913333
56.04974747 0.14818283704326107
61.67017746 0.020789286951917393
62.13489151 0.018209972914880065
69.06996918 0.026156115780690766
74.00593567 0.27688164849842606
79.05400848 0.03672973937932576
84.03983307 0.02189313241896707
84.04458618 0.3354165179158665
86.00566101 0.04498076412055235
86.98970032 0.02214477033914165
88.021698   0.019507017107876442
88.03927612 0.2882497090003827
91.05419922 0.04324328164113319
95.08537292 0.029387699316689053
104.975563  0.023791942592501582
105.0697861 0.11933196528961068
107.0854568 0.2238299543554168
112.0215912 0.027873258175045712
112.0390396 0.08200430978811837
116.0161285 0.1014581657334058
117.0694809 0.026608981244350845
119.0856323 0.04238267270978012
120.9953308 0.02454843562288357
121.0648575 0.021949133369559195
123.0440521 0.04325330369179769
123.0802231 0.030270053738392966
130.0496368 0.08744892024471124
131.0853271 0.045003610753189274
132.0111084 0.03136852596225307
133.1010742 0.16978753020772744
133.419632  0.02285253989314359
140.0142822 0.022323124342378167
145.1009369 0.11507876594967346
147.1166382 0.19758196770715616
151.0381317 0.026085325992428698
155.0159149 0.34650977304348046
157.1009521 0.08460859408934639
159.0804443 0.03371023336400899
159.1170349 0.03913992458450384
160.0513611 0.1579794598713283
161.0586548 0.02333972912098444
161.0958862 0.11450441675622625
161.1328583 0.032265977624258854
162.0215912 0.030580474442305588
163.0209656 0.07941738710625636
169.1009827 0.09211585103098048
171.1165009 0.02751696206202232
173.0604248 0.02646148406294414
173.0956268 0.08509596960065725
174.0677643 0.02974319441079383
175.075531  0.02319599279584696
175.1116333 0.09586122507427826
177.0353088 0.032886990826838755
177.0737457 0.04030040436594183
178.0318298 0.034834785273611175
185.09552   0.03950687818180488
187.111496  0.03028217044318221
189.0911865 0.032637495166564695
189.1277161 0.027914935996642513
191.0152893 0.08476610711196839
191.0887146 0.047047285301761096
193.0310669 0.04651422066480779
197.0954895 0.028846092547747396
198.1042023 0.02460821191845944
199.0751343 0.03797086748419928
199.1118622 0.04962866915512723
201.091095  0.09404813220436829
203.0879059 0.025316865284033988
203.1067047 0.10404931911984389
213.0910645 0.04724431939736486
214.0985718 0.10833239832830374
215.1061096 0.09148976470857847
216.0449982 0.022687200894981746
216.1137238 0.10628384315282902
217.1217499 0.138782981446895
219.0834503 0.29060419958778533
221.0986481 0.034555432512794325
226.0987549 0.022950978287924553
229.0669098 0.024488226735695198
244.1162262 0.02437740462981794
247.078125  0.1236395594026689
249.0941162 0.034193932881519895
263.1275635 1.0
263.1527405 0.024384909783826608
272.1090393 0.03409699303376014


