PRECURSORMZ: 267.159085184
COMPOUNDNAME: casmi2022challengepriority147
FORMULA: C15H22O4
SMILES: CC1=C(CC2(C13CCC(C3CC2)(CO)O)C)C(=O)O
INCHIKEY: QEXBXSJDNHRVSH-MHEUCROKSA-N
PRECURSORTYPE: [M+H]+
PRECURSORINTENSITY: 2899663.665039
IONMODE: positive
CHARGE: 1
PARENTMASS: 266.151809184
NUM PEAKS: 60
55.05447388 0.10366861932744495
56.12805939 0.031238989378186387
61.0251503  0.030579792949815332
69.03341675 0.04380614460788364
69.07006073 0.03283256489776532
79.05404663 0.0940801911428652
81.04557037 0.03036037108511508
81.0699234  0.5023012263346225
83.04920197 0.45384689066670586
87.24823761 0.027489072515713645
91.05433655 0.12607969124660795
93.06999207 0.4927211820340519
95.0490799  0.04921775046888512
95.08562469 0.30554961351761095
97.06482697 0.03213416185744095
105.0336533 0.3714681342531302
105.0700531 0.3046318874340332
107.0855637 0.5425192853559418
109.0649261 0.06605331956412744
109.1013031 0.045973200108252524
111.0805054 0.11221369067984463
117.0699005 0.05667392105342081
119.0491409 0.1928617074060949
119.0856476 0.48885176772823596
121.1011505 0.06511687478590877
123.0803223 0.107552812221196
129.0702515 0.04539694993917222
131.0853729 0.2498431863033424
133.10112   0.4175859993956973
135.0806732 0.2228457791740802
137.0596619 0.057542261916055784
137.0960083 0.03238011887442161
139.0741425 0.037096197080413756
143.0856628 0.32802329360481663
144.9470673 0.11708204317153241
145.1013184 0.4424044637609132
147.0797119 0.059486985100735794
147.116684  0.5747242639370628
149.0959473 0.05230432040223433
151.0753326 0.11198744694754706
153.0909729 0.03734408908507305
157.1011963 0.22671315329519412
159.1164856 0.22700609831609275
161.0956879 0.059381896461850485
161.1325989 0.0536326368448795
165.0908051 0.04820716729126921
170.1091766 0.03517554169964082
171.1167908 0.05138240556444089
175.0753632 0.05719895621090434
175.1478577 0.7215152982229788
185.1322937 1.0
187.1477509 0.12601281144184545
189.0914307 0.05815936040821713
201.1264496 0.03338840046867123
203.1071472 0.03182046114498903
203.142746  0.47244118504536453
213.1269684 0.18356360388018647
225.5623474 0.030910924490316283
231.1379852 0.7890473500346934
249.1484985 0.1099743201951559


