PRECURSORMZ: 805.4344767920002
COMPOUNDNAME: casmi2022challengepriority43
FORMULA: C41H66O14
SMILES: CC1CCC2(CCC3(C(=CCC4C3(CCC5C4(CCC(C5(C)CO)OC6C(C(C(CO6)O)O)O)C)C)C2C1(C)O)C)C(=O)OC7C(C(C(C(O7)CO)O)O)O
INCHIKEY: OQQOYQUBUVPAAU-SCPUYFPYSA-N
PRECURSORTYPE: [M+Na]+
PRECURSORINTENSITY: 2000374.15625
IONMODE: positive
CHARGE: 1
PARENTMASS: 782.4452587920001
NUM PEAKS: 10
102.7171402 0.6955869349902023
110.8996124 0.7134573547186506
141.3124847 0.6870341686088327
167.2267151 0.6741373344625035
196.6312714 0.6795234882906817
202.1689911 0.6504829602033215
220.0776978 1.0
248.1855621 0.7679566662844987
271.3864136 0.7677374605609216
319.8714905 0.6982395037120992


