PRECURSORMZ: 329.1030622959999
COMPOUNDNAME: casmi2022challengepriority231
FORMULA: C18H18O6
SMILES: COC1=C(C=CC(=C1)C=CC(=O)OCC(C2=CC=C(C=C2)O)O)O
INCHIKEY: CLQSQZGNPFWGAE-INIZCTEOSA-N
PRECURSORTYPE: [M-H]-
PRECURSORINTENSITY: 81408499.1543
IONMODE: negative
CHARGE: -1
PARENTMASS: 330.1103382959999
NUM PEAKS: 48
52.90410614 0.0012178247121443478
59.01266861 0.004679291837102253
89.03821564 0.001759809595384348
91.05392456 0.006084399418218102
92.82237244 0.0010962257005286094
93.03304291 0.021094729715899825
95.0484314  0.0022870103648852526
105.0332108 0.0014452157129158756
106.0409851 0.06332545992289577
106.0494461 0.0013711747271698046
107.025856  0.0028316524047719478
107.0487518 0.3977468507246629
107.0667038 0.0068144487823516686
108.0202026 0.00474336897703942
117.0332489 0.022597936128838227
121.0283203 0.01206777899466013
123.0438385 0.029010336323855274
132.0204773 0.005992401716959008
133.0281677 0.03538765663757402
134.0033569 0.0019967175917568578
134.0359192 0.4071666631723744
134.0611877 0.0063709212059004025
135.0108948 0.005788557512763939
135.0437317 1.0
135.0528564 0.01536158070352304
135.0689087 0.014572983898478846
136.0155945 0.0011624442049620373
137.0228271 0.01959168432172648
139.0387115 0.004487895586460103
141.103775  0.0011445941412459866
147.0435028 0.0027179914331946393
148.0514679 0.024785790629232016
149.0596008 0.032625981229846376
150.0319824 0.0013873723820791845
151.0380402 0.0020414435612867475
153.0559692 0.0012301478530194654
160.015274  0.08261037018295522
161.0228882 0.002158283496729994
175.0388489 0.06207576552540712
177.017868  0.008316641424846834
177.3525543 0.001266034331910268
178.0086517 0.001958809008676387
178.0259705 0.06547004479445803
179.0338745 0.03058553663267964
193.0495453 0.03638370391191351
195.165329  0.0010905124262289752
200.1203461 0.001114210524920878
220.7517853 0.0015343712941623762


