PRECURSORMZ: 963.4725675920004
COMPOUNDNAME: casmi2022challengepriority154
FORMULA: C47H76O18
SMILES: CC1C(C(C(C(O1)OC2C(C(COC2OC3CCC4(C(C3(C)C)CCC5(C4CC=C6C5(CCC(C6C(=O)C)(CCC(C)O)C(=O)O)C)C)C)O)OC7C(C(C(C(O7)CO)O)O)O)O)O)O
INCHIKEY: OWZYYRSRGCPFKQ-HMMRWYOQSA-N
PRECURSORTYPE: [M+Cl]-
PRECURSORINTENSITY: 3187377.841797
IONMODE: negative
CHARGE: -1
PARENTMASS: 928.5031655920004
NUM PEAKS: 23
139.6307678 0.014199419918373554
221.2999573 0.019860192293505878
399.3272705 0.024507570558571747
443.3511963 0.11902134354236092
487.3414001 0.28250244006588177
513.3546143 0.016749204348187944
539.371521  0.018772377614854514
575.3937988 0.06848925194720568
583.3660278 0.06684947802214691
597.3416748 0.021132103603376938
598.3488159 0.02070218274769388
601.3742676 0.107241530938002
617.241333  0.015767756488873064
619.3850708 0.20003676945207755
721.4512329 0.06370527018764391
747.4295654 0.02237960243240521
765.2818604 0.027243598979546667
765.4431152 1.0
765.5687866 0.019390859763242868
766.4448853 0.060128826966700195
781.435791  0.20909510026731962
909.4971924 0.01645130041088629
927.4944458 0.23519384514660965


