PRECURSORMZ: 1275.6015331279998
COMPOUNDNAME: casmi2022challengepriority206
FORMULA: C60H94O26
SMILES: CC1C(C(C(C(O1)OC2C(OC(C(C2O)O)OCC3C(C(C(C(O3)OC(=O)C45CCC(=C)CC4C6=CCC7C8(CCC(C(C8CCC7(C6(CC5)C)C)(C)C)OC9C(C(C(CO9)O)O)OC1C(C(C(C(O1)C)O)O)O)C)O)O)O)COC(=O)C)O)O)O
INCHIKEY: NPCYPPUNOYDHKT-FTGSXAGXSA-N
PRECURSORTYPE: [M+FA-H]-
PRECURSORINTENSITY: 10658015.14062
IONMODE: negative
CHARGE: -1
PARENTMASS: 1230.6033321279997
NUM PEAKS: 40
89.02294159 0.011540558515264818
95.01213837 0.0032206167142489997
97.02811432 0.027531681669087444
99.00737762 0.009489476237788584
99.04373169 0.002680541986684863
101.0154953 0.0047664777447494425
101.022995  0.13734662081356902
103.0386505 0.004095061500105433
109.0275497 0.009313343404004828
111.0075073 0.0026704387021576135
113.0230179 0.021088208187272323
115.0384979 0.019479430375677943
119.033699  0.004052930062063386
125.0230865 0.04821271658804306
127.0384216 0.003927961854157471
131.0231171 0.0028910872037736005
131.0336914 0.07938896441320005
143.0336609 0.024478976479778158
145.0496368 0.008220052617889273
161.0442657 0.013210672780177716
163.0596924 0.0028788177268273146
166.4949493 0.002464516438680031
179.3482513 0.012584569901065254
179.36763   0.006266150010354235
203.0548401 0.0029655927597770746
205.0709076 0.008757413105170583
221.0655518 0.014075372359140815
221.3523407 0.002855929416285146
221.3728333 0.0023484076977776137
245.0688171 0.0028095521583775813
247.081955  0.0025818348733712693
359.4170532 0.0023016160802317776
439.3212891 0.14591757651317794
493.3288269 0.003045088653498763
553.3538208 0.04759555619558355
571.3644409 0.04268718871117692
717.1242676 0.00848928622737838
717.4215698 1.0
718.4224243 0.009790492487167254
1098.681396 0.0023736820107715197


