PRECURSORMZ: 145.07602425599998
COMPOUNDNAME: casmi2022challengepriority116
FORMULA: C9H8N2
SMILES: C1=CC2=C(C=CN=C2)C(=C1)N
INCHIKEY: DTVYNUOOZIKEEX-UHFFFAOYSA-N
PRECURSORTYPE: [M+H]+
PRECURSORINTENSITY: 148082720.5078
IONMODE: positive
CHARGE: 1
PARENTMASS: 144.068748256
NUM PEAKS: 33
50.8297081  0.00025554435857079693
51.02164459 0.000260510206866602
56.81970215 0.0003595209427756485
71.93490601 0.0003491064504943852
91.04875183 0.00040359792972527984
91.05419922 0.030347018769552817
104.049614  0.0007204383787637223
105.0570755 0.0004477437568992296
105.5883865 0.00028930321080204306
106.0711899 0.00030286663354850435
116.0494919 0.0012156532949119808
117.0571289 0.014642821337770345
118.0650177 0.034062528141752445
120.5087204 0.0002989031523596037
128.0414124 0.0012689450509962156
128.0493317 0.0727845864417669
128.0722504 0.0004899185082053429
129.044632  0.0012764448617744325
129.0573425 0.001374534563766355
131.062088  0.00036506184250605653
143.0604401 0.0019229871857580315
144.0682831 0.007323205530654805
145.0402985 0.005947978767533812
145.0495453 0.0033944563795876696
145.0550537 0.007646469660958727
145.0657501 0.01774702014243831
145.0758209 1.0
145.0977478 0.003848747294191504
145.1036987 0.010494725527548052
145.1335144 0.0006231643056876438
146.0598297 0.004790199170282732
156.0552368 0.003688246299473561
161.0709839 0.0012527699187383796


