PRECURSORMZ: 1266.7052426880002
COMPOUNDNAME: casmi2022challengepriority28
FORMULA: C58H104O28
SMILES: CCCCCC(CC(CC(=O)OC(CCCCC)CC(CC(=O)OC(CCCCC)CC(CC(=O)OC(CCCCC)CC(CC(=O)O)OC1C(C(C(C(O1)CO)O)O)O)OC2C(C(C(C(O2)CO)O)O)O)O)O)OC3C(C(C(C(O3)CO)O)O)O
INCHIKEY: DXKIYFYDJGEVJY-UHFFFAOYSA-N
PRECURSORTYPE: [M+NH4]+
PRECURSORINTENSITY: 2357157.0625
IONMODE: positive
CHARGE: 1
PARENTMASS: 1248.6714196880002
NUM PEAKS: 31
89.02333069 0.004624126465851514
91.05421448 0.023709355173310288
93.06997681 0.023092134366808313
95.00471497 0.0038996471746035907
95.04892731 0.0059341014804601975
105.069725  0.01899938521067077
107.0855331 0.07871494901458316
109.101181  0.6807334468636235
120.5824585 0.004205498482704078
123.081337  0.004153836639264264
123.1168365 0.0677339645923498
127.0763931 0.0060758838974745545
127.1116867 1.0
133.0895996 0.008222037009917036
133.10112   0.2206160076842982
144.3046722 0.003958403834144632
151.0976562 0.007235377704686899
151.1117401 0.3329369589308963
169.1055603 0.006767922252057165
169.1222839 0.3831815105091064
169.1392365 0.0055285421237603345
187.1326599 0.2913314686534131
205.143631  0.00737205187666378
257.7386475 0.0035587514672770185
297.2229004 0.004074190815641831
304.225708  0.004488906838313745
304.2726135 0.006957466957532098
337.2355652 0.006069646752275357
431.7510071 0.0043880357744379
604.555542  0.004194173674313481
1019.733215 0.004507723438686671


