PRECURSORMZ: 325.234929568
COMPOUNDNAME: casmi2022challengepriority114
FORMULA: C17H34O4
SMILES: CC(CC(C)O)C(CCCCCCCCCCC(=O)O)O
INCHIKEY: VUHKKYAXFCILCE-UHFFFAOYSA-N
PRECURSORTYPE: [M+Na]+
PRECURSORINTENSITY: 19480018.5
IONMODE: positive
CHARGE: 1
PARENTMASS: 302.245711568
NUM PEAKS: 17
59.67335892 0.003529130143723857
60.14763641 0.0032493174035043383
66.45175171 0.003897422315499499
81.30492401 0.007461977115459974
93.33366394 0.0031696337515135834
110.2537689 0.0038744840373040336
207.8284454 0.0038850944834548794
216.8341675 0.015641681387668974
216.8571777 0.004491377506119694
262.9559937 0.0033103777729718287
289.2011719 0.06411436622840555
306.7510376 0.003957674100384532
307.2113647 0.069225406864886
313.8220825 0.0034365341925949857
325.1443481 0.013266790761701255
325.2344971 1.0
343.2336731 0.004778916134031456


