PRECURSORMZ: 243.087408928
COMPOUNDNAME: casmi2022challengepriority37
FORMULA: C10H14O4
SMILES: CCCC(C1=C(OC(=O)C=C1)CO)O
INCHIKEY: KGBKYZFFQHZKLE-QMMMGPOBSA-N
PRECURSORTYPE: [M+FA-H]-
PRECURSORINTENSITY: 15487317.60156
IONMODE: negative
CHARGE: -1
PARENTMASS: 198.089207928
NUM PEAKS: 16
54.12693405 0.095258975786513
65.03805542 0.14421655492202917
81.03266144 0.12756475999247324
83.04870605 0.15495055188387793
83.06439972 0.11651211067864663
93.82309723 0.13281551668343636
106.0411453 0.11669890242283835
108.0202255 0.12922996924788055
118.9645615 1.0
135.0798187 0.6697607885528325
136.3606567 0.12061753053006699
146.9601593 0.7880931449875578
151.0747223 0.1809408082260729
163.385437  0.1337371951574263
189.1864929 0.11660254971572072
221.29599   0.1461620617854035


