PRECURSORMZ: 267.159085184
COMPOUNDNAME: casmi2022challengepriority98
FORMULA: C15H22O4
SMILES: CC(=CCCC(=CCCC(=CC(=O)O)C)C(=O)O)C
INCHIKEY: UIDKGJWCHCMTEG-UHFFFAOYSA-N
PRECURSORTYPE: [M+H]+
PRECURSORINTENSITY: 1685816.734375
IONMODE: positive
CHARGE: 1
PARENTMASS: 266.151809184
NUM PEAKS: 58
55.66037369 0.03367353471376
59.14047241 0.03454814526189882
61.46474838 0.030690002229167842
61.5334816  0.034084902117740755
69.03362274 0.04369025423871968
69.06996918 0.15942779784335706
81.0699234  0.19677983530565543
83.08535004 0.04740755248753269
91.05432129 0.05134249011536096
93.06975555 0.5216758919203727
95.08559418 0.34678589950138494
105.070015  0.0815036887197677
107.0852203 0.05832076739863812
109.0648346 0.1681025761010507
119.0855179 0.05640342607100566
121.064682  0.33235093362515167
121.1015091 0.14978198064922818
123.0802383 0.14089672106634046
125.0592651 0.038664498294502525
131.0856476 0.05945636097286359
131.7053375 0.031900828292375075
133.1011353 0.04832181827002427
134.9838257 0.03310187296139473
143.0844879 0.04519822397362414
145.1009979 0.15226394081836245
147.0813446 0.07562006017524452
149.0597687 0.0652821493720418
151.076767  0.037854678688205065
151.7674408 0.03205838607648457
157.1007538 0.07217751605016057
161.0589294 0.06408271286632043
163.07547   0.2266032275031388
169.1011658 0.05466458703134208
171.1160889 0.15349403605540496
173.0965424 0.04172419592602764
175.0750275 0.13990867167707405
175.1482086 0.2573676754110834
177.164032  0.06575407429514855
183.1155243 0.05016921408944489
185.1327209 0.20551479494881666
195.1165771 0.06493195358295713
197.0957642 0.17690095648486667
203.1430206 0.4665508174996415
207.1174774 0.047392691369896815
208.5730133 0.0403626573274982
211.1117096 0.17692310998977223
211.1481018 0.22926725171570683
213.1269379 0.21383910875052697
221.1325684 0.05695945140982611
221.1539001 0.16266153405422035
225.0906982 0.25457654872650354
225.1270752 0.1630977876892835
231.1376801 1.0
239.1426697 0.2844437259523935
249.1281281 0.05888765071829286
252.1130524 0.039888395002365414
267.1376343 0.6193335771293541
267.1740112 0.42100103137384587


