PRECURSORMZ: 654.4575634999999
COMPOUNDNAME: casmi2022challengepriority186
FORMULA: C36H60O9
SMILES: CC(CCC(C(C)(C)O)O)C1CCC2(C1(C(CC3=C2CCC4C3(CC(C(C4(C)C)OC(=O)CC(C)(CC(=O)O)O)O)C)O)C)C
INCHIKEY: VWKSQQHPNMUNOC-UHFFFAOYSA-N
PRECURSORTYPE: [M+NH4]+
PRECURSORINTENSITY: 5036752.5
IONMODE: positive
CHARGE: 1
PARENTMASS: 636.4237404999999
NUM PEAKS: 57
53.03884888 0.0883265402042637
55.05447769 0.44806953006103534
61.93143082 0.05827386775356679
67.05423737 0.6034804506328261
69.06987    0.5628478343200229
71.04927826 0.2608060508193492
71.98551178 0.05655947133665611
72.48654938 0.05731198925600022
79.0541687  0.3837298801868028
81.03326416 0.1156917786278784
81.0699234  0.6313937551734901
83.08552551 0.4051479335441177
83.84350586 0.06414530346823885
85.02824402 0.1481009667872735
91.054245   0.4036066498647748
93.06989288 0.7163574189234699
95.08543396 0.7835904812306913
99.04399872 0.4926797043755235
103.0391846 0.4794116377156829
105.0698471 1.0
107.0856094 0.789054015656271
109.0284805 0.10246104950554491
109.1011887 0.5525749125466873
117.0697403 0.08950278571748725
119.0855713 0.8670326403272545
121.1010742 0.7222140666294113
123.1174622 0.08917566077778144
127.0387726 0.25107676441453053
129.0695038 0.11918998309530758
131.0851593 0.609079148589007
133.1010132 0.5572147595121283
135.1172485 0.13345842230810953
142.0778503 0.2822894037466656
143.0854034 0.40924108165365813
145.1009521 0.7264716972830362
147.1165466 0.29843418786127046
149.13237   0.06378064052792265
155.0855103 0.11243284486129804
156.0927582 0.25210930358502043
157.101059  0.8129989732177185
159.1165924 0.8012026963623452
161.1331024 0.08605717968361012
169.1010437 0.2481309848515689
170.1079712 0.09540303157777107
171.1168365 0.4824961377442617
173.1326141 0.4121955582311383
183.1156921 0.13639528897321465
185.1321259 0.26899754879888677
187.1472778 0.09427202904432869
195.1174011 0.06702695025924452
197.1322937 0.11695946615545492
199.1482697 0.10549997758925442
211.1477356 0.10704907418944136
213.1643219 0.11619226816905127
225.1632385 0.06712719208970602
237.1633301 0.0657670807925931
253.1948242 0.0822560806112495


