PRECURSORMZ: 195.06628286400002
COMPOUNDNAME: casmi2022challengepriority18
FORMULA: C10H12O4
SMILES: COC1=CC(=C(C=C1)CCC(=O)O)O
INCHIKEY: CGWRDLSMEFSEDN-UHFFFAOYSA-N
PRECURSORTYPE: [M-H]-
PRECURSORINTENSITY: 18429249.05664
IONMODE: negative
CHARGE: -1
PARENTMASS: 196.073558864
NUM PEAKS: 24
60.5209465  0.0007463990446022588
109.3671951 0.0007988098767376028
121.0281677 0.013202049743784118
135.0445557 0.001000364426693509
136.0176239 0.00112573853401025
136.0517273 0.34751159866826786
136.0610504 0.004677157134505585
136.0774994 0.004350214606688599
149.0599213 0.009359404686160177
151.0358124 0.00337340149282217
151.0469513 0.004244243357513384
151.0752716 1.0
151.0857239 0.02086663425903307
151.0970001 0.004976371354894152
151.1050262 0.012413925124386046
152.0787201 0.0014266669648644885
161.0235901 0.00916735327458762
162.0314484 0.01659177955424854
177.054718  0.17134117779513422
177.0930023 0.00118617133373216
180.0430756 0.0009053339869284948
195.0653839 0.2161773024757335
195.1109161 0.0011253236522313786
195.1146545 0.0010872302719134612


