PRECURSORMZ: 513.2359921880001
COMPOUNDNAME: casmi2022challengepriority184
FORMULA: C29H34N2O5
SMILES: CC1CC=CC2C(C(=C(C3C2(C(=O)C4C(O4)C(C1)O)C(=O)NC3CC5=CNC6=CC=CC=C65)C)C)O
INCHIKEY: DAOMSLPFWWIXQB-UHFFFAOYSA-N
PRECURSORTYPE: [M+Na]+
PRECURSORINTENSITY: 4299336.361328
IONMODE: positive
CHARGE: 1
PARENTMASS: 490.2467741880001
NUM PEAKS: 6
54.10808182 0.5473242213817608
64.14268494 0.6365119014958156
70.16046906 0.5423978315619169
137.5857239 0.6122983363717395
144.2736359 0.6010240475153223
220.0652771 1.0


