PRECURSORMZ: 88.075689908
COMPOUNDNAME: casmi2022challengepriority90
FORMULA: C4H9NO
SMILES: CCC(=NO)C
INCHIKEY: WHIVNJATOVLWBW-SNAWJCMRSA-N
PRECURSORTYPE: [M+H]+
PRECURSORINTENSITY: 13403101.76563
IONMODE: positive
CHARGE: 1
PARENTMASS: 87.068413908
NUM PEAKS: 20
53.03881073 0.004653887963707763
55.05446243 0.06299125387778165
56.04968262 0.010654830548352576
60.04455566 0.017018197003783847
70.0651474  0.0772290370232956
71.01258087 0.0021139583446587434
71.07302856 0.013167941505855821
71.08540344 0.0019010449641354062
72.80224609 0.0010685332870621642
73.05226898 0.0021047037725143887
78.36631775 0.001012504021213757
78.82272339 0.0010347048836244915
79.78822327 0.00133353170683475
81.74947357 0.001127370296425451
83.434021   0.0010354223169997995
88.06235504 0.011472657551399841
88.07566833 1.0
88.09288788 0.006409800464126124
88.11130524 0.0009919806572195723
196.9762726 0.0012094554350873974


