PRECURSORMZ: 561.1214755119998
COMPOUNDNAME: casmi2022challengepriority170
FORMULA: C24H26O14
SMILES: COC1=C(C=CC(=C1)C2=C(C(=O)C3=C(C(=C(C(=C3O2)OC)O)OC)O)OC4C(C(C(C(O4)CO)O)O)O)O
INCHIKEY: PRBUAZIWXABBBW-AFNDXPGZSA-N
PRECURSORTYPE: [M+Na]+
PRECURSORINTENSITY: 3721171.011719
IONMODE: positive
CHARGE: 1
PARENTMASS: 538.1322575119998
NUM PEAKS: 15
50.11258316 0.7678464263799454
57.9442749  0.9026552354098525
64.65569305 0.7940261153021674
75.53093719 0.8229194164352315
76.14713287 0.7810018087837022
79.13078308 0.7360485757227591
81.16872406 0.7203666282225178
110.1006165 0.8054085197102713
116.0114212 0.9593941039034177
131.2778015 0.830778491519016
147.3641663 0.8704101706630408
191.7179565 0.8220463446540041
211.1578369 0.9543989297348302
221.1195221 1.0
392.8706665 0.7962522617735545


