PRECURSORMZ: 374.13758951999995
COMPOUNDNAME: casmi2022challengepriority239
FORMULA: C17H25NO6
SMILES: CCC(C(C)O)(C(=O)OCC1=CC=C(C=C1)NCCCC(=O)O)O
INCHIKEY: JGCPVCKZVBKIHO-UHFFFAOYSA-N
PRECURSORTYPE: [M+Cl]-
PRECURSORINTENSITY: 7436581.021484
IONMODE: negative
CHARGE: -1
PARENTMASS: 339.16818751999995
NUM PEAKS: 20
53.00597382 0.024148232982896263
63.08414459 0.0338884322338524
64.72209167 0.02502587933216441
70.77073669 0.025194640683491778
71.38330078 0.02572221572897165
79.87178802 0.027905968235963977
85.02835846 0.05837294770972002
90.79463959 0.03158914440373788
101.0230026 0.05236208798696754
103.0389023 0.043332314204927426
105.8804626 0.02934078785128106
107.1816406 0.028167569798479074
107.8863144 0.0268900522871245
147.065033  1.0
163.027298  0.029997687030698855
230.8781586 0.03235669059442615
238.3353424 0.03239998043979061
254.9336853 0.03329042778374217
359.7255554 0.02850204056993673
377.5601196 0.029418931215087596


