PRECURSORMZ: 454.07529609599993
COMPOUNDNAME: casmi2022challengepriority21
FORMULA: C21H18F3NO3S2
SMILES: CC1=C(C=CC(=C1)SCC2=C(N=C(S2)C3=CC=C(C=C3)C(F)(F)F)C)OCC(=O)O
INCHIKEY: YDBLKRPLXZNVNB-UHFFFAOYSA-N
PRECURSORTYPE: [M+H]+
PRECURSORINTENSITY: 587140.5625
IONMODE: positive
CHARGE: 1
PARENTMASS: 453.06802009599994
NUM PEAKS: 15
54.12342834 0.01789387011586209
54.94944763 0.017191212920484974
61.31823349 0.01593022145838297
62.92476273 0.01570123148487505
79.1807785  0.015510220111807459
87.55716705 0.014618770589349168
129.7245941 0.017066958732285368
166.550415  0.01782162725112501
256.0400085 0.04115252987380926
257.0166321 0.018793580010459842
257.0243225 0.01864320867735724
257.0476379 1.0
257.3858337 0.019790901384832107
467.5800171 0.01879635293315551
476.0513611 0.017126448276112007


