PRECURSORMZ: 371.1136269799999
COMPOUNDNAME: casmi2022challengepriority233
FORMULA: C20H20O7
SMILES: CC1CC2(C3C(C1C)C4=CC5=C(C=C4OC36C(=CC2=O)OCO6)OCO5)O
INCHIKEY: LRDZBWWOVQELFI-UHFFFAOYSA-N
PRECURSORTYPE: [M-H]-
PRECURSORINTENSITY: 6494769.300781
IONMODE: negative
CHARGE: -1
PARENTMASS: 372.12090297999987
NUM PEAKS: 38
55.26913452 0.012694163032088458
57.03323746 0.0047825438446274645
59.01245499 0.0033334221627769143
60.00259781 0.002899607653560164
66.88155365 0.0029909830213025682
83.58721924 0.003443224820761842
97.06433868 0.003047757393082994
108.0202713 0.0840714788208638
109.0281372 0.043767657136512206
121.0275574 0.005941102134411945
122.0358963 0.03305345138860034
123.0437546 0.2328856496691431
123.053894  0.0068903075709070795
136.0153198 0.04431911530478954
137.0231323 0.1629185206187169
137.0328674 0.0036682303513016915
145.6130524 0.004281275925940151
149.0597839 0.04439460441903722
150.0312805 0.008412842095835543
151.0388184 0.1583930364670608
167.4157867 0.0035540889719561986
175.0755768 0.02018841693372422
176.0825195 0.006317611354750034
177.0545349 0.03361047446827381
177.0909729 0.03561740247743745
191.0703888 0.00804388915224627
192.0782623 0.1173290424302016
193.0860596 0.05372484943750312
203.0713806 0.006241865136139993
204.0795135 0.00465758294085792
205.0860291 0.08098010507076472
215.3778076 0.026808927916109594
221.0811157 1.0
221.1453247 0.005802864552326229
233.0814362 0.0740142545096296
234.4567413 0.004075122214729076
257.2619629 0.0039970671716667355
304.2832642 0.006504631932177461


