PRECURSORMZ: 603.204811212
COMPOUNDNAME: casmi2022challengepriority159
FORMULA: C28H36O13
SMILES: CC(=O)OCC1C(COC1C2=CC(=C(C=C2)O)OC)C(C3=CC(=C(C=C3)OC4C(C(C(C(O4)CO)O)O)O)OC)O
INCHIKEY: AKEQVUOZQNGJQC-UHFFFAOYSA-N
PRECURSORTYPE: [M+Na]+
PRECURSORINTENSITY: 5407029.242187
IONMODE: positive
CHARGE: 1
PARENTMASS: 580.2155932119999
NUM PEAKS: 11
54.70281601 0.6267398571549139
62.11877823 0.6453733290735809
137.0595551 1.0
165.2934265 0.71712885802635
169.5608826 0.7785621882751022
173.8990479 0.6728330005159223
174.7810822 0.6827523098155723
195.7038422 0.7158414118267393
220.0550995 0.9054817414082657
275.9889221 0.913489771545795
526.3318481 0.848794850058708


