PRECURSORMZ: 228.232190548
COMPOUNDNAME: casmi2022challengepriority152
FORMULA: C14H29NO
SMILES: CCCCCCCCCCCCCC(=O)N
INCHIKEY: QEALYLRSRQDCRA-UHFFFAOYSA-N
PRECURSORTYPE: [M+H]+
PRECURSORINTENSITY: 9477546.043945
IONMODE: positive
CHARGE: 1
PARENTMASS: 227.22491454800002
NUM PEAKS: 60
53.00244141 0.00854510262005254
53.03884506 0.02004145156222146
55.01808548 0.025277599541062304
55.05447006 0.20659652426652955
56.04973602 0.03019337116712716
57.03371048 0.06339529823899112
57.07008743 1.0
57.07857895 0.006027284523110811
58.06538391 0.010366034180950614
59.03688049 0.0076737137893204636
60.04466248 0.031338710808865036
67.05420685 0.06109834526419473
69.06990051 0.21142665187015663
70.06508636 0.010801504293772196
71.04908752 0.13246863063940667
71.08126831 0.010292492326028009
71.08553314 0.1977389761118807
71.0900116  0.006873513614271761
72.04441071 0.02495446827844486
72.08073425 0.020065307861061782
74.06001282 0.34284797381466103
74.06481171 0.007700414832018867
78.48698425 0.00508940439527232
79.05419159 0.023804280989775148
81.06988525 0.055436582924639405
83.0490799  0.022558835743913343
83.08550262 0.07604594366984546
85.06461334 0.021981658402389137
85.10124207 0.03648196024468481
86.05992889 0.027965666094260135
88.07566071 0.751504474570216
93.06985474 0.02399039899230415
95.0490799  0.025772405304324654
95.08543396 0.040836216157774476
97.06481171 0.009887887825314514
97.10115814 0.010307150525561767
100.0758209 0.02768156460437596
102.0912476 0.34485504880280976
102.0989761 0.007597499513653266
102.3814621 0.006178486472873
105.0447769 0.029362963597764902
107.0851517 0.007037718331689937
109.1009598 0.007048343605372825
116.1068726 0.10296139926097
129.0569916 0.0076031347619631914
130.122757  0.030580290231446778
140.9991302 0.007310243098306696
144.1381073 0.005997470929486183
158.1542969 0.006103875649652604
164.0259705 0.034748486901364194
165.0339661 0.01957250217590418
179.0133362 0.04104089307713531
181.8071442 0.005501121038127771
185.1821289 0.005407011148367557
186.1844482 0.007661785074906544
190.8422546 0.005391977792940705
193.0283203 0.09475175889354504
223.0557709 0.007132968378968504
227.9975281 0.24246634535242415
228.232132  0.1067987558926595


