PRECURSORMZ: 335.174309376
COMPOUNDNAME: casmi2022challengepriority153
FORMULA: C15H28N2O4
SMILES: CC(C)CCCCCCCC(=O)NC(CC(=O)O)C(=O)N
INCHIKEY: LZOJNMQMOSTOHX-LBPRGKRZSA-N
PRECURSORTYPE: [M+Cl]-
PRECURSORINTENSITY: 790970.5195313
IONMODE: negative
CHARGE: -1
PARENTMASS: 300.204907376
NUM PEAKS: 14
64.99175262 0.12213612696618137
70.02870941 0.20837957915563768
96.00754547 0.26978623650741124
113.034256  0.17612839998059435
113.1040039 0.14833170962732672
114.0183487 0.6526506516708516
123.271965  0.15377327104342386
131.0450287 0.27895555709884257
167.2349854 0.1267481811924828
184.1701202 1.0
255.0659637 0.24541903342944876
260.0246277 0.14439934394842063
281.1864624 0.6461515350604368
322.0664978 0.14597011135330815


