PRECURSORMZ: 280.141513468
COMPOUNDNAME: casmi2022challengepriority50
FORMULA: C12H19N5O3
SMILES: CN1C2=C(N=C1NCCCOC)N(C(=O)N(C2=O)C)C
INCHIKEY: ZZQHGKMTMAORFI-UHFFFAOYSA-N
PRECURSORTYPE: [M-H]-
PRECURSORINTENSITY: 47897933.27734
IONMODE: negative
CHARGE: -1
PARENTMASS: 281.148789468
NUM PEAKS: 43
51.51564789 0.008470570345594185
51.51861572 0.003918694847721128
60.54191589 0.0013862045467163096
64.20000458 0.0012083465521173238
65.40778351 0.0014030063970830958
65.67588043 0.0011605958253543731
66.27809906 0.0018341862182254035
70.03334808 0.011164666375283553
70.03806305 0.004823937906903424
71.54621124 0.0012219943516577228
83.83049011 0.0012378535484399902
116.8721619 0.0012032329928007416
127.5998688 0.0011650008115210624
191.0918274 0.0017812634615047567
193.0556793 0.0038836326458181096
193.0747986 0.018871049383941768
194.046936  0.002245645207960113
194.0673218 0.06755047038524674
195.0515442 0.0018116381186099643
195.124115  0.01854419315767543
205.0735931 0.017618092601779867
206.0673981 0.6684599298998788
206.1144714 0.007517579230896491
207.0753326 0.002450437292803001
208.0830688 0.07976986322908548
217.6426697 0.001506470641724495
217.6653442 0.0017663579001025152
218.0670471 0.0021386097031969946
220.0831757 0.047833782379414554
222.0985413 0.0023367452369827627
223.1195831 0.002469756150919906
232.0823059 0.0016266471015366731
233.0905762 0.0056177507644057855
235.1066132 0.012020274488819935
248.1141968 0.021228085417414035
250.0934448 0.013756025827954725
265.1176147 0.23599937654110803
275.9790039 0.001327649217171075
280.043396  0.0041831907006912045
280.1409302 1.0
280.1989136 0.005540087110625658
280.2160645 0.010501545590963352
298.0652466 0.0014083494858199168


