PRECURSORMZ: 301.165659248
COMPOUNDNAME: casmi2022challengepriority38
FORMULA: C14H24O4
SMILES: CC=C(C)CC(C)C1C(C(C(C(=O)O1)(C)O)O)C
INCHIKEY: UKWNFIJQRGRIDQ-UHFFFAOYSA-N
PRECURSORTYPE: [M+FA-H]-
PRECURSORINTENSITY: 662767.5898438
IONMODE: negative
CHARGE: -1
PARENTMASS: 256.167458248
NUM PEAKS: 11
52.8381958  0.03986597716806405
58.62655258 0.04380583059102284
105.8779526 0.048950058049457595
106.0645599 0.05409514940032342
164.9261475 0.08293895958225782
183.5950775 0.04767409921319251
221.2961273 0.07779813627137991
259.1339722 0.0986072840447882
283.0248108 0.2406449911393433
299.151001  0.07005004446577862
301.1654968 1.0


