PRECURSORMZ: 256.19071966
COMPOUNDNAME: casmi2022challengepriority56
FORMULA: C14H25NO3
SMILES: CCC(C(CC=CCC=CCCCC(=O)N)O)O
INCHIKEY: ZRAPVLSWOKTYNU-UHFFFAOYSA-N
PRECURSORTYPE: [M+H]+
PRECURSORINTENSITY: 64233032.45508
IONMODE: positive
CHARGE: 1
PARENTMASS: 255.18344366000002
NUM PEAKS: 119
51.01911926 0.008996626864471516
55.01799774 0.01350712921641941
55.0544548  0.07329127166003296
57.0337677  0.3346099947734491
57.07006836 0.03294193905037591
59.04938507 0.014050199010975756
67.05432892 0.23462544928235435
69.03374481 0.06704655650705585
69.06998444 0.24528036022996824
70.06504059 0.0384727535882282
71.04919434 0.7307621276082499
71.08107758 0.0076623507417681825
71.08532715 0.01000406062799019
72.04434967 0.013152924858280063
77.03908539 0.007250029148072207
79.05426788 0.20189376432275963
81.06459808 0.012727666546053954
81.06987762 0.33071558718288907
82.06516266 0.009031523137538697
83.04914093 0.0798390785188759
83.08560181 0.13626216379206368
83.1096344  0.007419144755357266
84.08082581 0.032539786113456357
85.06486511 0.08285539339846419
86.06003571 0.07040941583242874
89.05973053 0.11730116994331202
91.05418396 0.3370874120532304
93.06336975 0.015111134563583001
93.06993866 0.45391147026896633
95.04908752 0.055374418043661805
95.085495   0.2464901057371447
97.06475067 0.184146407751377
97.10111237 0.03135521247939533
99.04403687 0.009264030273790858
99.08033752 0.05414976480521047
100.0754242 0.06571940256503035
103.6173325 0.0074237968881920155
105.0619125 0.011130763277449444
105.0699234 0.3557877537892494
107.0490036 0.062165878663611146
107.0855408 0.5231742371245929
107.0926361 0.013290855546174566
109.0648422 0.20408351224219032
109.1011353 0.44544732038756885
111.0435104 0.00997593675873437
111.0805664 0.11446070035781772
112.0754395 0.04398116029429502
113.0595474 0.039179162143689945
114.0912704 0.036951859445985606
115.0752335 0.08077603023358662
117.0697021 0.1383262171832911
119.085495  0.8386329272705343
119.0935287 0.015665876653399267
121.0648346 0.07383987456277892
121.0911484 0.010957137257266917
121.10112   0.30387224701483534
123.0802917 0.2979224379849636
123.1166611 0.08090315603264583
125.0588989 0.00923955493909058
125.0962601 0.11706573392835605
126.0911102 0.06062851686567764
126.1274643 0.010917818518071805
127.0762024 0.00869483275037189
128.1066895 0.0117873959715354
129.0696716 0.15168185582760424
131.0854797 0.3283435050054276
133.0648499 0.06946168134121336
133.10112   0.7917379326981063
133.1101685 0.011726797129417441
135.0803223 0.33623218751256384
135.1167297 0.13842227314758976
137.095993  0.3173793269810638
137.1079559 0.010508783620793632
138.0913391 0.012114975073372733
139.0749054 0.03366157278977204
140.1070557 0.014931787480400435
142.1227264 0.008604332006593494
143.0855255 0.19216686366743055
145.1009369 0.143263361878342
147.080368  0.1665191171149439
147.1166687 0.3348484541470671
149.095993  0.36976200699553735
149.132019  0.01612339585092269
151.0743561 0.01446242310939573
151.1116486 0.4544789932858923
152.1065063 0.03192462107506131
153.0910187 0.08013686326538817
157.1010284 0.12502428335946608
159.1167145 0.2673462630161219
161.0969086 0.13363285490290677
161.1165771 0.018482959433924334
161.1323395 1.0
161.1439514 0.01931696618823624
161.1480255 0.017845436819040727
163.111618  0.11529134402766052
165.1273804 0.12734282153338963
168.1380463 0.1958342942146102
170.1172791 0.034974554738069395
175.1114502 0.0694288344791541
175.147934  0.3044487757809673
177.1264954 0.010925149760784786
179.1053772 0.009054026454388292
180.7437592 0.008502798214931854
182.153595  0.016232148313432237
183.1165924 0.00710764986129538
185.1130676 0.015697482209624896
185.1323395 0.7043074820086037
191.1430817 0.009515105737144695
193.1588593 0.030907224701483535
202.1590118 0.009862021067020464
203.1204987 0.010051432275961886
203.1428833 0.5628691030434608
218.0166168 0.013219429702890684
218.0365906 0.008222461604953213
220.1696625 0.01800919470912234
221.1532288 0.1533304225465364
238.1791382 0.03650400434205765
256.1917114 0.012139726812206007
266.8447266 0.007854583283078037


