PRECURSORMZ: 371.11362697999994
COMPOUNDNAME: casmi2022challengepriority85
FORMULA: C20H20O7
SMILES: COC1=CC(=CC2=C1OC(C2CO)C3=CC(=C(C=C3)O)OC)C=CC(=O)O
INCHIKEY: FHYQIQMSODIFCP-UHFFFAOYSA-N
PRECURSORTYPE: [M-H]-
PRECURSORINTENSITY: 39096960.6543
IONMODE: negative
CHARGE: -1
PARENTMASS: 372.1209029799999
NUM PEAKS: 105
62.76657486 0.00878158305152304
63.25567627 0.007606565613028436
68.23229218 0.009819273332785103
72.85942841 0.009010474168883715
82.79599762 0.008114458311320972
91.05390167 0.01319078484298247
93.03290558 0.04420308451778015
93.03898621 0.008816972123716037
101.676712  0.008102025969516986
104.6311035 0.009906968991904743
108.0200424 0.043051269965297
109.0277557 0.041748812126120256
110.6938248 0.008640366833169362
117.0328827 0.013355038855022545
119.0489197 0.45080019360288
121.0282669 0.12123304788507834
133.0278778 0.039148886783439994
134.0359192 0.017196469357282727
135.0437317 0.040923342591684564
143.0490112 0.01159117367000832
145.0279846 0.06277616090550471
146.0354919 0.05502317619443803
147.0439301 0.7859503781899396
148.0517883 0.31508580846601353
149.0226593 0.03311672165789865
150.030899  0.02054780994650613
151.0396881 0.014295552037100891
159.0435181 0.03521420086615145
160.0513458 0.04618665595313039
161.0596313 0.20455316328757936
163.0391388 0.03462596208293922
165.0702057 0.017778545352740018
167.0488586 0.00939992300963912
167.085144  0.05239188528713015
173.0237732 0.012321803100809527
174.0309143 0.016186463180655
175.0386963 0.04025952908946541
179.085907  0.01350757427770635
180.0569305 0.03861827411890127
181.0637817 0.030110920293820842
183.0447235 0.009559494133389853
183.0797577 0.020229812470935842
189.0536346 0.03308726602364359
191.0339508 0.8363456507366084
191.0500336 0.013774205302884215
192.0414429 0.0198200315711886
193.0652924 0.08516357387120346
194.0726166 0.01299325237021173
195.0450134 0.02002786007130407
195.0808716 0.15268475314051078
196.051651  0.050279901680106036
197.0595856 0.054876404174483015
205.065033  0.05132326935791542
206.0740814 0.07156750318717159
207.0802002 0.21103147312178316
208.0516052 0.05364815286402561
209.0599823 0.1361262183220451
210.0669556 0.012403293463372043
211.0393066 0.011874881370784313
211.0752563 0.2191084935354986
219.0810242 0.012005192598486076
220.0516968 0.044715455963253416
220.7706451 0.013196692577923679
221.0600128 0.20374474472574508
222.0678101 0.11995304655643113
223.0759125 0.26967849900825974
224.0479736 0.10093649857170424
225.0538177 0.031234866866385543
232.0544128 0.012890127004438416
233.0612488 0.08787218730129606
234.066452  0.07840803546855377
235.0757446 0.22471024418637758
236.0473938 0.01731587559433237
237.0549469 0.1672955860441427
238.065506  0.06771923469920377
239.0709229 0.38850169718864574
240.0391846 0.011588805040001772
245.0580444 0.009742614145031334
248.0468292 0.03937545672248039
249.0552368 0.14939886622104262
250.0628052 0.20765403608226224
251.0707703 1.0
251.0934753 0.01240449952706486
252.0413208 0.009983946501387272
253.0511475 0.016159458228280573
261.0549622 0.04697876299780773
262.0618591 0.046454904289948785
263.0710754 0.1490720506404396
264.0787048 0.015853598498628645
265.0500488 0.0653314065312501
265.0822449 0.01282432535565049
266.0576477 0.07427066758195697
267.0657654 0.4716685910961656
267.0979004 0.018130791082879114
268.0740662 0.14428493472229692
277.0508423 0.020199929771504314
278.0579224 0.041126238093581055
279.0661316 0.19704567382976232
281.0820007 0.017522693768960904
294.04953   0.014101419279936477
295.0614014 0.15539794565832887
301.4599304 0.009049521963803955
311.0558472 0.047811109072446074
312.065979  0.014275339595901439
323.0552368 0.05221559040969786


