PRECURSORMZ: 855.4383714120002
COMPOUNDNAME: casmi2022challengepriority156
FORMULA: C42H66O15
SMILES: CC1(CCC2(CCC3(C(=CCC4C3(CCC5C4(CCC(C5(C)CO)OC6C(C(C(CO6)OC7C(C(C(C(O7)CO)O)O)O)O)O)C)C)C2C1)C)C(=O)O)C(=O)OC
INCHIKEY: NMDFCFOQBAHNPV-IWIVWMRFSA-N
PRECURSORTYPE: [M+FA-H]-
PRECURSORINTENSITY: 16457157.26563
IONMODE: negative
CHARGE: -1
PARENTMASS: 810.4401704120002
NUM PEAKS: 33
71.01242065 0.48603057181634973
71.93018341 0.020113919430240226
73.02796936 0.14106309035822492
78.46386719 0.01289582619305485
82.85547638 0.0140531390949099
83.01217651 0.07451581371756029
85.02339935 0.01243167696009204
85.02811432 0.1982661256049244
89.022995   0.19721238501295532
92.63965607 0.01291091417271011
95.01190186 0.022270022483308886
99.00727844 0.05254409607501748
101.0229416 0.48408675266989293
103.4359589 0.014004704872297635
113.0230637 0.23972970675733107
119.0333023 0.101573564289925
131.0331573 0.019569958734902596
143.0329895 0.024362498800433216
161.0444489 0.10979192657280343
164.5094604 0.014418239241599781
211.6552582 0.013224246157959042
216.4723969 0.02610565612875825
216.4971619 0.020719200265961267
301.8019104 0.012285994715051391
483.3093872 0.01664742847154645
515.2487183 0.024097665300302978
515.3369141 1.0
536.2224731 0.012661840409635096
602.6201782 0.012791884587966033
625.6611328 0.014887196166870021
629.3692017 0.15157217279245438
647.3788452 0.8601202034465267
809.4321289 0.1190377692170599


