PRECURSORMZ: 441.09578428399993
COMPOUNDNAME: casmi2022challengepriority93
FORMULA: C20H22O9
SMILES: C1=CC(=CC=C1CO)OC2C(C(C(C(O2)COC(=O)C3=CC=C(C=C3)O)O)O)O
INCHIKEY: LIGHTUNOZWZMMP-CBNQQXHVSA-N
PRECURSORTYPE: [M+Cl]-
PRECURSORINTENSITY: 3889562.625
IONMODE: negative
CHARGE: -1
PARENTMASS: 406.12638228399993
NUM PEAKS: 16
66.78710175 0.01263317567573657
71.0123291  0.06990813877794701
76.53076935 0.013881801421334767
85.02811432 0.014955400092070269
93.03314209 0.23096977685547665
95.04896545 0.01710699471045548
101.022789  0.08342036101615366
105.0328674 0.0204127270062597
113.0228043 0.025706064994056792
123.0437546 1.0
136.015152  0.03376537726331917
137.0231018 0.8425781833025533
206.6510162 0.015149430989557577
221.2987366 0.017936153955604724
268.822937  0.015008217990746218
281.06604   0.18154292326698399


