PRECURSORMZ: 217.083514308
COMPOUNDNAME: casmi2022challengepriority42
FORMULA: C11H14O3
SMILES: CC=C(C)C1=CC(=C(C(=O)O1)C)OC
INCHIKEY: NRLCQITWKJENAT-UHFFFAOYSA-N
PRECURSORTYPE: [M+Na]+
PRECURSORINTENSITY: 28667958.85938
IONMODE: positive
CHARGE: 1
PARENTMASS: 194.094296308
NUM PEAKS: 14
52.87354279 0.21974450651104624
61.01081467 1.0
69.55865479 0.20988660300679624
70.86927795 0.21230787577775576
85.8469162  0.2266660819393724
87.09498596 0.25520172592870743
97.03547668 0.23865240020762452
105.0447769 0.27962299836701693
116.0081635 0.23374487675208613
147.0814667 0.2665358256170241
157.0108185 0.4730886098041971
174.074173  0.26786379786590797
180.635376  0.22994907439183834
228.7280273 0.27061191453209144


