PRECURSORMZ: 603.1684257039999
COMPOUNDNAME: casmi2022challengepriority81
FORMULA: C27H32O14
SMILES: COC1=C(C=C(C=C1)C2=C(C(=O)C3=C(O2)C(=C(C(=C3OC)OC)OC)OC)OC4C(C(C(C(O4)CO)O)O)O)OC
INCHIKEY: MSTIUVOQDAVXIA-SATOHXPNSA-N
PRECURSORTYPE: [M+Na]+
PRECURSORINTENSITY: 4509685.369141
IONMODE: positive
CHARGE: 1
PARENTMASS: 580.1792077039999
NUM PEAKS: 12
55.13212585 0.17267498508733484
64.18640137 0.16954829903419705
95.74060822 0.17814092150797622
109.1018677 0.21849939595314094
178.3602448 0.1872270548763904
200.7228699 0.1807209667933388
203.1250916 0.18363619804582423
361.0973816 0.19185116905269725
367.0401917 1.0
382.0632019 0.34033097746679
405.3840332 0.1941587753794614
607.5574951 0.22890752763032488


