PRECURSORMZ: 355.18797937599993
COMPOUNDNAME: casmi2022challengepriority220
FORMULA: C20H28O4
SMILES: CC1=CC(C(=CC(C)CCC=C(CCC=C(C)C)C(=O)O)C1=O)O
INCHIKEY: QQQHFUHGZMFSOB-UHFFFAOYSA-N
PRECURSORTYPE: [M+Na]+
PRECURSORINTENSITY: 2431141.666016
IONMODE: positive
CHARGE: 1
PARENTMASS: 332.19876137599994
NUM PEAKS: 12
52.90946198 0.5270159794142378
57.00715637 0.4923565735738478
71.24908447 0.4427937775079311
81.06884003 0.5203257712184349
95.56880188 0.4749687499281228
97.37155151 0.4543254948455061
145.0998993 0.42993304569085394
145.9785614 0.48380252522812733
161.4611969 0.47368405669439106
217.8266907 0.39974910341713205
218.8688965 0.6366358363289802
304.2497253 1.0


