PRECURSORMZ: 223.984544464
COMPOUNDNAME: casmi2022challengepriority36
FORMULA: C9H7NO2S2
SMILES: C1=CC=C2C(=C1)N=C(S2)SCC(=O)O
INCHIKEY: ZZUQWNYNSKJLPI-UHFFFAOYSA-N
PRECURSORTYPE: [M-H]-
PRECURSORINTENSITY: 4614820.883789
IONMODE: negative
CHARGE: -1
PARENTMASS: 224.991820464
NUM PEAKS: 19
57.3065033  0.0021882860185252566
57.9712677  0.0029137579285416267
57.97436142 0.06404821802524692
72.54354095 0.0017858435164342414
73.87679291 0.0017652408706838256
79.15625    0.0015276087313371807
87.685112   0.001390086237157139
124.611145  0.0014880114633732755
133.9807587 0.013141627950623302
133.9857025 0.0031784939486433116
134.0055542 1.0
134.0377045 0.006354583258058441
135.0088196 0.0031034189446416515
141.000061  0.002725442666093162
150.0005646 0.013011333335262186
165.9765015 0.004591097833844607
167.0600586 0.0035976913080709803
223.8379974 0.002059543083550765
224.0820465 0.0022622888406316436


