PRECURSORMZ: 620.3217983039999
COMPOUNDNAME: casmi2022challengepriority124
FORMULA: C36H42O8
SMILES: CC1CC2(C(C1OC(=O)C3=CC=CC=C3)C=C(C(CC(=O)C(C=CC(C2OC(=O)C)C)(C)C)OC(=O)C4=CC=CC=C4)C)O
INCHIKEY: ULYZLNNPRNDNFD-ZICLEKGPSA-N
PRECURSORTYPE: [M+NH4]+
PRECURSORINTENSITY: 11500295.31641
IONMODE: positive
CHARGE: 1
PARENTMASS: 602.2879753039999
NUM PEAKS: 136
53.03872299 0.049584210661446346
55.01800919 0.008717229440751272
55.05450058 0.09565782442672338
57.07008362 0.015006877987071688
65.64370728 0.009588006009044863
67.0542984  0.10566300710592487
69.03364563 0.08627883464419828
69.0699234  0.07123607447923427
69.61793518 0.007438243117779541
71.04902649 0.017578392720820856
73.96715546 0.007903678816494408
77.03853607 0.013401422700971022
79.05405426 0.04833342426493832
81.06988525 0.11790562456457344
83.04904175 0.10839156756599713
83.0851593  0.045048015054557695
85.06489563 0.02846912659461449
85.25228882 0.0073558378903298294
91.05390167 0.03638704096677131
93.06987762 0.25563437420742763
95.04932404 0.1167635496466716
95.08551788 0.0914414237321861
97.06456757 0.015950632974761715
97.10109711 0.09221095003454698
105.0334549 1.0
105.044693  0.04851818363246312
105.0699158 0.16369373807525606
107.0855713 0.1441739177583597
109.0646973 0.08420507675373494
109.0934372 0.009025350867550921
109.1011887 0.24167935697448084
111.0799713 0.012917898114261502
117.0698242 0.012545585713271164
119.0854416 0.2314511560883791
121.0645905 0.08234053897329997
121.1010895 0.2714140551489768
123.0808411 0.029091830378042097
123.1163712 0.013868214323991223
125.0956573 0.061044643884949505
127.1113281 0.008503912525851245
127.6985931 0.008977601877672893
128.0623016 0.011519461788076401
129.0696869 0.010558190633704112
131.0855408 0.07173675959116588
133.1010437 0.17576100252010046
135.0803223 0.061075956169052044
135.1173248 0.06616585451793398
137.0955963 0.08742574998093393
142.0767212 0.012787168536352915
143.085434  0.08644440124958605
144.0931854 0.010517431087215643
145.1008759 0.22466441381503888
147.079834  0.05934461172387658
147.1167908 0.13141786751985848
149.0960236 0.09785349541793391
149.1315613 0.01664065130691111
151.1113281 0.016355818787303033
155.0846558 0.06512563953703933
156.0930481 0.03962468469184447
157.1009064 0.22643356842390727
159.0801849 0.03834122942711146
159.1164398 0.20188490660071395
161.0957642 0.1259123424113761
161.1319122 0.04671149334384874
163.1114197 0.09188827304075259
167.0853729 0.01487240328684814
168.0937347 0.008874808299355672
169.1007996 0.1687924040748282
170.1087036 0.009643171344028095
171.1165771 0.1916535597062971
173.0959778 0.09104683194428972
173.1321716 0.13897934073347684
175.1116638 0.1469345294977763
177.1266937 0.020126325588550726
179.0865173 0.010414773431237674
181.1003876 0.030212313438539792
182.1087952 0.040494181214808515
183.1168823 0.12166487224545858
184.1244354 0.01052305668849398
185.0958099 0.019851238568693745
185.1325531 0.10387691894894438
187.1113739 0.048812921327580035
187.1478577 0.06809956753153884
189.1265106 0.07606056796556131
194.1084595 0.012197732735149899
195.1165619 0.10343023855357601
196.1234894 0.05621241206273335
197.132309  0.3944992234637999
198.1408234 0.013203580478397649
199.1121216 0.017147864650023256
199.1482391 0.09048871106645796
201.1272736 0.06019451959439549
201.1631012 0.1427068116189646
203.1064148 0.01623746210115688
203.142334  0.036250941796650296
207.1158905 0.03907533938250909
208.1250916 0.011803294024839327
209.1316376 0.0723704374539342
210.1402588 0.047318683505735995
211.1122742 0.014265515321229542
211.1477509 0.35123723850231087
211.1707001 0.010435321457862922
213.1271667 0.09379842794175637
213.1634979 0.04602350460934558
215.1430359 0.12848987335817427
215.1787872 0.013384292527339369
218.6103058 0.013849331675929017
221.1314697 0.032536759629171345
223.1472015 0.05778383793758336
224.1558228 0.058160767739200724
225.1270905 0.05597222277353613
225.164093  0.03355534580289975
226.1337433 0.014207014610400442
227.142334  0.04257222527767429
229.1591034 0.07408806825883685
229.1947632 0.014835824342013552
233.1318817 0.009809212357968214
237.1646118 0.014697232382585692
239.1430817 0.042945895582421574
239.1787567 0.15826726434349647
241.1579285 0.05402646413748994
243.1373749 0.013873248729076118
243.1742401 0.01674899856643382
243.2082825 0.014150027520182804
248.1551666 0.017545429574133645
253.1945801 0.13438826945134713
257.1563416 0.011410280519637942
257.1896667 0.032553418693336486
259.1685486 0.012735656609096263
263.1803284 0.028446022436233367
267.3645935 0.008735697063807214
271.2042542 0.041226290604515846
281.1901855 0.14868553649492108
299.1994324 0.09672720332698191
373.8750305 0.010759108923971342
581.5652466 0.009602112900357075


