PRECURSORMZ: 110.060039844
COMPOUNDNAME: casmi2022challengepriority103
FORMULA: C6H7NO
SMILES: CN1C=CC=CC1=O
INCHIKEY: DVVGIUUJYPYENY-UHFFFAOYSA-N
PRECURSORTYPE: [M+H]+
PRECURSORINTENSITY: 265880005.9063
IONMODE: positive
CHARGE: 1
PARENTMASS: 109.052763844
NUM PEAKS: 43
51.02331161 0.0006521665877378942
53.03884888 0.0003467920619584008
55.05449295 0.004818876794622617
56.04978561 0.0006664797606898519
56.22515488 0.00034725778784227727
56.3097229  0.00034703090358418747
65.03874969 0.01225385280301222
66.03414154 0.0003461652513085621
67.04177094 0.027544033463097875
67.05420685 0.0030319329809281115
68.04959106 0.0006064479999863295
69.0334549  0.0030737416453219682
76.54441071 0.00031917672508117615
78.02856445 0.0007862813749805812
78.03386688 0.03927873105874691
78.03922272 0.0006701044057125642
80.04946899 0.009628400753639405
81.05722046 0.000488598527881503
82.05945587 0.000842363399727132
82.06513977 0.03486174030538369
87.00386047 0.0005502595478733173
88.9664917  0.00032998700075424466
92.04948425 0.009735898576267969
93.03371429 0.0007289985179951513
95.0365448  0.014513106118533743
96.04438782 0.07796901179026022
96.05165863 0.0008482223740194349
101.3300858 0.00043447122702524417
102.7123718 0.0003520376436697295
109.0522079 0.00034229367984895
109.7430801 0.00043075700365418897
110.0270386 0.0005018502126920041
110.0320206 0.0010471028166610119
110.0373383 0.006856280719129833
110.0417175 0.006219232931992475
110.0458145 0.004598928625072118
110.0599823 1.0
110.0743332 0.00705460888085091
110.0778427 0.009318115758172247
110.0845718 0.0011556961651652156
110.0876007 0.002358722852775045
110.0927734 0.000535370451023822
113.9640732 0.0005641143324170309


