PRECURSORMZ: 489.22785050399995
COMPOUNDNAME: casmi2022challengepriority22
FORMULA: C23H32N6O4S
SMILES: CCCC1=NN(C2=C1N=C(NC2=O)C3=C(C=CC(=C3)S(=O)(=O)N4CCN(CC4)CC)OCC)C
INCHIKEY: MJEXYQIZUOHDGY-UHFFFAOYSA-N
PRECURSORTYPE: [M+H]+
PRECURSORINTENSITY: 270766651.8594
IONMODE: positive
CHARGE: 1
PARENTMASS: 488.22057450399996
NUM PEAKS: 67
51.24219513 0.0016441148719878495
53.47092056 0.0016024303095913915
54.35634613 0.029752590462386652
54.35969162 0.010931604627352997
54.40617752 0.0016220720722437013
56.0496521  0.05719648220891029
57.0526123  0.002081594064049354
57.05747604 0.15048781012519324
57.40342712 0.0016971968819304165
58.05640411 0.00818317368068853
58.06529999 0.9095264788322807
58.07229996 0.010986706460547493
70.06510162 0.04474151086491799
71.0729599  0.0692170720923022
72.0684967  0.007661651892610481
72.08074188 1.0
72.09031677 0.0103382815963004
72.09493256 0.0020159044445051274
81.58778381 0.0016672848799240878
82.06512451 0.002056829334510233
84.06835938 0.01966649963215797
84.08069611 0.0692022218746955
85.07590485 0.016968669164559757
86.08375549 0.006998649190702187
96.08065033 0.0023967079432390677
98.04497528 0.0019722256436782108
98.08370972 0.02894803048579634
99.07225037 0.0022171786605622657
99.09156036 0.4392120512324698
99.10692596 0.00288683853301716
111.0913849 0.02997282145670281
112.0993805 0.02509195389515036
113.0837631 0.002934375721728133
113.1071396 0.650771400158624
113.1252518 0.004392013654365732
114.1150055 0.35454386933138604
114.1343231 0.0023023804457977387
115.1228333 0.011980720072062979
122.2794418 0.0015422479212718295
122.3008194 0.010715912773978327
122.31147   0.0068407018857735875
177.0689697 0.01886829728689673
220.1339417 0.002696023195170805
274.1176453 0.0018411052048992467
282.1124573 0.003418473410603504
283.118866  0.06321150050226232
283.1542969 0.0023328128037115115
284.1265564 0.00742834823536086
285.1363831 0.002283284131858546
297.1322327 0.002681309757955812
299.1128845 0.028907979612653928
311.1194153 0.0020146797187819707
311.1497803 0.15128394049352803
311.1919861 0.003622058132845739
312.1576538 0.00793527014346998
313.1654053 0.02731467973862005
327.1459351 0.003057834687314624
329.160675  0.010818021402854084
339.182312  0.007568155508254302
344.1459351 0.002045807393420782
354.1922607 0.0021037692160430312
377.1274719 0.03106325442002431
396.2261963 0.002361270210214088
461.1960754 0.07324811894724527
487.2104492 0.011751528879655247
489.2268982 0.9646913971114954
489.3951111 0.009526923142226442


