PRECURSORMZ: 679.406283436
COMPOUNDNAME: casmi2022challengepriority13
FORMULA: C36H58O9
SMILES: CC1(CCC2(CCC3(C(=CCC4C3(CCC5C4(CC(C(C5(C)C)O)O)C)C)C2C1)C)C(=O)OC6C(C(C(C(O6)CO)O)O)O)C
INCHIKEY: WNRDHIDWADTLIO-YYCILOOSSA-N
PRECURSORTYPE: [M+FA-H]-
PRECURSORINTENSITY: 75555638.00781
IONMODE: negative
CHARGE: -1
PARENTMASS: 634.408082436
NUM PEAKS: 9
59.00561905 0.13749859941617112
59.01250458 0.21406509195788667
62.69252396 0.1289359292588914
67.86488342 0.1172596403082252
107.3626862 0.12847226188592475
215.5212555 0.3156713080220136
215.5470123 0.5584229941064681
304.2874451 0.16715147934423652
471.3456421 1.0


