PRECURSORMZ: 377.19695937599994
COMPOUNDNAME: casmi2022challengepriority166
FORMULA: C20H28O4
SMILES: CC1CCC2(C(C1(C)CCC3=CC(=O)OC3O)CC(=C2C)C=O)C
INCHIKEY: NZIQEPLIKSMSRT-UHFFFAOYSA-N
PRECURSORTYPE: [M+FA-H]-
PRECURSORINTENSITY: 15856435.46875
IONMODE: negative
CHARGE: -1
PARENTMASS: 332.19875837599994
NUM PEAKS: 14
83.0487442  0.019982475057429457
123.8806915 0.015114641707954294
133.3357391 0.020018819185591483
215.5860138 0.04030131836624176
215.6109161 0.10817466830946448
233.7029572 0.01925891712077031
251.1795654 0.021538469640274463
257.1903992 0.08660431861122214
259.2067871 0.3077320844231762
269.1911011 0.14278922602093397
287.1651611 0.041902011747663614
287.2012024 1.0
287.229126  0.022520364555987694
331.1895142 0.21534436234786553


