PRECURSORMZ: 381.00704572
COMPOUNDNAME: casmi2022challengepriority48
FORMULA: C13H15IN2O2
SMILES: CC(=O)NCCC1=C(NC2=C1C=C(C=C2)OC)I
INCHIKEY: FJDDSMSDZHURBJ-UHFFFAOYSA-N
PRECURSORTYPE: [M+Na]+
PRECURSORINTENSITY: 14712680.25
IONMODE: positive
CHARGE: 1
PARENTMASS: 358.01782772
NUM PEAKS: 14
50.51114273 0.02708712757145032
54.02176285 0.022504893517381566
61.08142853 0.026920372167046635
63.78113556 0.027557716410545333
76.7378006  0.024344008945226304
124.0133362 0.032714517036090546
145.0280609 0.23887845542837222
151.0381927 0.10558678706204683
177.0542908 0.714190101738682
216.1690674 0.09653905940131666
242.4656219 0.024752154767322437
381.0068665 1.0
381.0922241 0.03642148101105799
402.577301  0.026376892408893182


