PRECURSORMZ: 809.4328954120001
COMPOUNDNAME: casmi2022challengepriority211
FORMULA: C42H66O15
SMILES: CC1CCC2(CCC3(C(=CCC4C3(CCC5C4(CCC(C5(C)C)OC6C(C(C(C(O6)C(=O)O)O)O)O)C)C)C2C1(C)O)C)C(=O)OC7C(C(C(C(O7)CO)O)O)O
INCHIKEY: HCFFYRGPTPKLPK-HHNOJRCQSA-N
PRECURSORTYPE: [M-H]-
PRECURSORINTENSITY: 6783203.297363
IONMODE: negative
CHARGE: -1
PARENTMASS: 810.4401714120002
NUM PEAKS: 21
56.96696472 0.02782130512368015
57.03321457 0.18748796968186365
59.01246643 0.09185820069627204
61.98682404 0.02831090879042001
68.99662781 0.03269875984691672
71.01243591 0.1985033745902215
72.99173737 0.059908767420708546
75.00733185 1.0
84.53875732 0.021763767035498535
85.02813721 0.5054824754228601
87.0071106  0.05232648183910989
95.01245117 0.026402914540089237
99.00745392 0.03917113455784476
113.0226212 0.0533869629812531
186.9236298 0.02569899886817848
213.6670074 0.029302120272915292
242.9387817 0.02341505156841852
333.521759  0.024997296356098136
525.8651733 0.02759750868186751
525.9604492 0.025353572096791697
788.3778076 0.026516707218334247


