PRECURSORMZ: 517.2209847959998
COMPOUNDNAME: casmi2022challengepriority0
FORMULA: C25H38O9
SMILES: CC12CC(CC(C1CCC34C2CCC(C3)C(=C)C4O)C(=O)O)OC5C(C(C(C(O5)CO)O)O)O
INCHIKEY: ZUDBDCBPZHGAEL-DCYCNZAJSA-N
PRECURSORTYPE: [M+Cl]-
PRECURSORINTENSITY: 3938078.25
IONMODE: negative
CHARGE: -1
PARENTMASS: 482.2515827959998
NUM PEAKS: 15
55.30610275 0.07486657803483197
56.26714706 0.06959874546016115
56.79741287 0.06767373278246099
58.29567337 0.0753804239777541
59.01250458 1.0
64.90908051 0.072330370661791
71.01248169 0.4382234451451861
108.8040848 0.07366729903087643
141.3908386 0.07653474277479425
153.0959015 0.0813172947449494
160.1982422 0.07818899626248174
160.2845459 0.08770109638075736
220.2219543 0.15239172093505704
220.2442322 0.09477434538178839
402.0232849 0.08433158698845764


