PRECURSORMZ: 336.17402404
COMPOUNDNAME: casmi2022challengepriority8
FORMULA: C17H25N3O2S
SMILES: CN(C)CCC1=CNC2=C1C=C(C=C2)CS(=O)(=O)N3CCCC3
INCHIKEY: WKEMJKQOLOHJLZ-UHFFFAOYSA-N
PRECURSORTYPE: [M+H]+
PRECURSORINTENSITY: 188100207.3359
IONMODE: positive
CHARGE: 1
PARENTMASS: 335.16674804
NUM PEAKS: 32
56.0497818  0.004650103950982991
56.16159439 0.0006445156325726111
57.05766296 0.0009296088453504376
58.05693817 0.008411239674909364
58.05821609 0.009158690182957056
58.05997086 0.007660873624938587
58.06264496 0.014752836211456968
58.06534576 1.0
58.07095718 0.004238438095758284
58.07223511 0.007856145619266995
58.07507706 0.0024168319789045424
59.36343002 0.0006548558424375642
72.77635193 0.000743833968907032
130.0649719 0.008737451126333196
133.0037231 0.0006015021292206996
144.0802917 0.0014704326662480995
153.0579987 0.000638527941236815
156.0806732 0.06782189246379287
157.0765991 0.0010820916879277398
157.0884552 0.13815008700358328
158.0963287 0.09681210054043143
170.0960541 0.001432288453649936
172.1120758 0.004564613157060044
198.4300232 0.0006300107032013326
201.1385193 0.032432013547938475
227.153656  0.001498282806457507
291.0768433 0.0012613426061025056
291.0877075 0.001785061769979494
291.1157837 0.11172554195635515
316.5247803 0.0006191373672176432
336.1752014 0.000940383245689746
353.8544312 0.0006715456412362328


