PRECURSORMZ: 529.1926651479997
COMPOUNDNAME: casmi2022challengepriority137
FORMULA: C24H34O13
SMILES: CC1C(C(C(C(O1)OCC2C(C(C(C(O2)OC3=C(C(=C(C=C3)O)C)CC=C(C)C(=O)O)O)O)O)O)O)O
INCHIKEY: CPTNKRLUDCGSPQ-GCFZLKQZSA-N
PRECURSORTYPE: [M-H]-
PRECURSORINTENSITY: 31616966.81836
IONMODE: negative
CHARGE: -1
PARENTMASS: 530.1999411479998
NUM PEAKS: 34
54.59647751 0.013453917555195876
55.01754379 0.018407808823714098
59.00914383 0.02090730208218129
59.01252365 0.7072702935739879
59.01527405 0.012795961082940899
65.03833771 0.012606864624100225
69.03314972 0.09960923494287029
71.01251984 0.358737553466843
72.99160767 0.026169223716286622
73.02819061 0.14820064743208944
83.01237488 0.0525270906728365
85.02807617 0.21267152236896977
87.00732422 0.018502625027610548
97.02819824 0.10262612396768318
101.0227661 0.029597563269601296
107.0485077 0.06618932151423694
121.0282669 0.02167392670071494
122.0357819 0.02997950063600253
125.0228043 0.08144469478735905
135.0437622 0.833537679757998
136.0515594 0.46354988874706904
141.7193756 0.012392239549815633
147.043335  0.030420976895233477
148.051651  1.0
148.0652771 0.031510075523768166
148.080658  0.014378328782539408
161.0593109 0.02762143855087
162.0669861 0.1694809142319381
176.0831146 0.20668545456701023
177.0908813 0.692017402212121
177.1084137 0.02751676484292297
220.7559967 0.016364082597546164
221.2171936 0.012741427377809107
333.3183899 0.013346432812979122


