PRECURSORMZ: 303.12269967599997
COMPOUNDNAME: casmi2022challengepriority208
FORMULA: C17H18O5
SMILES: CC1=CC(=O)C(C2(C1CC3=C(C(=O)OC3=C2)C)C)OC(=O)C
INCHIKEY: LWZCXTWCFCVAPB-NUTKFTJISA-N
PRECURSORTYPE: [M+H]+
PRECURSORINTENSITY: 3308983.438965
IONMODE: positive
CHARGE: 1
PARENTMASS: 302.115423676
NUM PEAKS: 47
52.69328308 0.06577072945593082
55.37423325 0.06532266128822682
57.03363419 0.08021808845533097
69.03352356 0.38277729524904924
83.07446289 0.05942949751607929
84.71361542 0.05673955742516398
91.0539093  0.0798687376000959
93.06929016 0.05906081357924528
94.25014496 0.057872522441433864
95.04880524 0.10201796082812642
105.0696564 0.23571470380438903
111.7944031 0.061276343315972
117.0696564 0.11372327265786963
119.0853271 0.11912229139824705
121.0650406 0.055849332080620956
123.0436478 0.22562161787158347
128.0618744 0.06850957640760273
129.0695038 0.26648521388851437
131.0857239 0.44185030730626584
136.4792786 0.06451638205392177
137.0593567 0.2634575064764882
141.0699463 0.11245727897236536
144.0934753 0.2152414410107207
145.0645599 0.13329488972124248
145.1008148 0.25511763800519643
151.2982635 0.05573869866235535
152.0608368 0.05720380865597973
154.0773926 0.32197513638952563
155.0852814 0.34832733767264484
157.1009369 0.07458380349346337
158.0722351 0.21330258580625264
158.8557739 0.07102762714302847
159.0801392 0.33939830279513816
159.117157  0.5982132091143413
169.1006165 0.3369992436943658
171.0815125 0.08758385449615445
172.0881805 0.5701885362619586
173.0957336 0.09630389003940625
180.7028656 0.06208433560813967
182.0718689 0.07744890845710001
187.1117554 0.8127565257088194
197.0963898 0.13719943176176572
200.0822144 0.10292019012758603
201.0915985 0.10214051662712786
215.1070099 1.0
221.1357117 0.07253066285726169
276.7004395 0.07249363445267967


