PRECURSORMZ: 235.096484928
COMPOUNDNAME: casmi2022challengepriority53
FORMULA: C13H14O4
SMILES: CC1C(=C)OC(=O)C2=C1C(=C(C=C2O)OC)C
INCHIKEY: CIGSWLXZMSXAAE-ZCFIWIBFSA-N
PRECURSORTYPE: [M+H]+
PRECURSORINTENSITY: 57787340.26172
IONMODE: positive
CHARGE: 1
PARENTMASS: 234.089208928
NUM PEAKS: 134
53.03899002 0.02530366130641972
55.01813889 0.04775561187276773
55.05463028 0.014162690562699323
56.03001022 0.007129335726069661
59.04956436 0.008621363357774057
65.03913116 0.00998986513249875
67.05430603 0.014765341350090597
68.99707794 0.058868346681499345
69.03369904 0.030402507464068713
72.98029327 0.0064239248437220975
77.03878784 0.008057303125955956
79.05413818 0.0891491308328467
81.06984711 0.007626857723684872
83.01299286 0.008075157121947226
91.05420685 0.5450314159489975
91.06079865 0.01237344942948
93.06988525 0.041794858477205786
94.04142761 0.00900489315357913
95.04930115 0.010842627296118275
97.02864838 0.013509897299044699
103.0542068 0.10359417320931985
105.0333557 0.010859061676641869
105.0446625 0.009011226315350316
105.0628433 0.007157122791270503
105.0698624 0.4671480595591747
107.0490036 0.05781533301364133
107.0857468 0.026865373970913493
108.0569229 0.030792787733955645
109.0648804 0.06227015982831647
115.0448914 0.012231403101430427
115.0541611 0.36042079972276747
116.0620041 0.16441604642439125
117.0697861 0.18681202062025473
118.0774231 0.05956801834205734
119.0491028 0.061476795430920425
119.0588226 0.008052772037436038
119.0853271 0.07277156507241482
120.0571594 0.009101594683916692
121.0646744 0.21393564026040468
122.0725708 0.045985823333713954
123.0802689 0.13895629524155295
127.0544357 0.011325679954925599
128.0512543 0.010111356709715764
128.0528717 0.009061810596294715
128.0618591 0.3746979977690691
129.060318  0.016692462282352508
129.0697174 1.0
130.0776215 0.6231465530598491
130.0887299 0.014475766171083773
131.048996  0.16800676357184793
131.0760193 0.010249785703063364
131.0854034 0.5287754152428937
131.0970459 0.011697800074191534
131.9082336 0.007543906775286032
132.0570526 0.041233267264724635
133.064743  0.39414545230489934
133.0751038 0.01865275813029133
133.1015167 0.028913616268794014
134.0723114 0.007547481248339794
135.044281  0.008057975724127104
135.0802612 0.44985291917101783
137.0596008 0.09114228978974724
137.0962524 0.007161102330449844
138.0677185 0.03090845577910818
139.0757904 0.010642452095033653
141.0698242 0.10871978575973494
143.048645  0.05221141084614402
143.0856171 0.045801667084870754
144.0570221 0.172720648072039
145.064682  0.23490840426223314
145.076416  0.011031630208253576
146.072403  0.5183839581334505
147.0444183 0.03947775966162969
147.0801392 0.15031284217725446
148.0874786 0.04998909750393053
149.0596008 0.09071133711280502
149.0962067 0.124542716140873
150.0676727 0.025934970993195913
151.0752716 0.23067812726723988
155.0604248 0.07299431752891668
156.0573273 0.08565162034287752
157.064682  0.27028435506358733
158.059906  0.010570846766205268
158.0724335 0.7667809061158157
159.0440826 0.12743469233784604
159.0561371 0.0073789313494985595
159.0801849 0.3787161030115638
160.0518036 0.05861567208450962
160.0879211 0.10248745719336547
161.0467834 0.0100532608071793
161.0596008 0.6226387998455157
161.0957794 0.5335106872345102
161.1183472 0.008496374081664225
162.0673828 0.053426202272433776
163.0758667 0.03013601917018583
163.111618  0.08873938478059479
164.0837555 0.02791541840987031
165.0544586 0.17434049055158204
165.0911102 0.06745364596590614
169.0767517 0.013092136589593724
171.0806732 0.07880612340006793
172.0518951 0.03475367879924745
173.0605164 0.061534107577604795
173.0958099 0.14735526410823838
174.0673676 0.8377094240853479
174.085022  0.00971788677959423
175.0751648 0.27142468968392813
176.0829926 0.3550097493199109
177.0363922 0.012020539806718572
177.0402679 0.0074373480078855966
177.0544434 0.5386331346170611
177.091217  0.015281562330475116
178.0624237 0.028567081256430565
179.1068878 0.02812935172900761
185.0593109 0.0689090956554725
187.0391541 0.03297101480948885
187.0756378 0.03923939614505464
189.0554657 0.03741745016126681
189.0907745 0.7150440368297727
190.0625305 0.07042219661685155
191.0701904 0.07043902475932969
191.1063232 0.057365408169798654
192.0777435 0.14613668955273948
193.0857849 0.06870047341265023
201.0545654 0.027302265105658127
202.0622864 0.22621189454408258
203.0701447 0.009496868571317985
205.0306091 0.007589828556723245
205.0500031 0.07276592805917091
205.0855865 0.07169560393754117
217.0856018 0.10241511803544
219.0655518 0.015059225302255444
220.0726471 0.3462658977338483
235.0964661 0.12996042093235838


