PRECURSORMZ: 889.1468967280001
COMPOUNDNAME: casmi2022challengepriority223
FORMULA: C42H34O22
SMILES: C1C2C(C(C(C(O2)OC3=CC(=C(C(=C3)O)C(=O)CCC4=CC=C(C=C4)O)O)O)OC(=O)C5=CC(=C(C(=C5)O)O)O)OC(=O)C6=CC(=C(C(=C6C7=C(C(=C(C=C7C(=O)O1)O)O)O)O)O)O
INCHIKEY: PLESAOGBVATPML-LMAPNQLBSA-N
PRECURSORTYPE: [M-H]-
PRECURSORINTENSITY: 1732597.022461
IONMODE: negative
CHARGE: -1
PARENTMASS: 890.1541727280002
NUM PEAKS: 18
71.10202789 0.022647287826599534
73.51182556 0.019519854560401947
94.24615479 0.021614720428948183
123.0437622 0.02529903695006794
125.0226974 0.10088308916821534
167.0339508 0.17452934771510628
169.0125275 0.03714333077521922
220.7475586 0.03212752485243851
231.0293274 0.031771261558072646
247.0280609 0.027297251134196218
249.0385742 0.032675113980165045
257.0088501 0.029281385149928407
273.0768738 0.03468459114086373
275.0196228 0.1749728020831075
300.9983521 1.0
301.0366211 0.03969424730471499
334.676239  0.020762346179588935
438.8553467 0.026547151371440546


