PRECURSORMZ: 657.313019608
COMPOUNDNAME: casmi2022challengepriority10
FORMULA: C33H44N4O10
SMILES: CCCC(=O)OCC(C(C(CN1C2=C(C=C(C(=C2)C)C)N=C3C1=NC(=O)NC3=O)OC(=O)CCC)OC(=O)CCC)OC(=O)CCC
INCHIKEY: MJNIWUJSIGSWKK-BBANNHEPSA-N
PRECURSORTYPE: [M+H]+
PRECURSORINTENSITY: 1267861.796875
IONMODE: positive
CHARGE: 1
PARENTMASS: 656.305743608
NUM PEAKS: 44
55.05422974 0.018552402397443754
55.98180008 0.013197994511247648
57.03343582 0.014008832321697192
60.24562836 0.012455818138867968
69.03354645 0.026052231653382198
71.0491333  0.11924861972815404
79.05413055 0.06562251764735308
81.03363037 0.08998212032445413
81.06956482 0.0175859117701785
85.06464386 0.1245621196432052
90.07176208 0.012875507818920936
93.0697937  0.04418938354363728
95.08547211 0.026320939796041252
99.04377747 0.08303748347746769
105.0696335 0.023088002041950648
107.0853958 0.028704542438043483
109.0641098 0.015049758982277648
109.1010666 0.01546634491184781
111.0803909 0.01867218881346402
115.0305939 0.026412588419859884
117.0541229 0.01476255464587261
119.0852661 0.021520859586924082
121.1012344 0.023902160595524885
123.0803452 0.023009083653155297
143.0702515 0.014253614056722059
143.0855255 0.016646616474534078
145.101181  0.019793753610498475
159.1166534 0.014549501337521057
161.1320801 0.015505532055768392
170.6852875 0.014136759740288227
171.1172943 0.020500136992529353
173.1322174 0.014460392931054332
198.5565796 0.012598748277618201
220.0576477 0.020526718051445625
243.0874939 0.439047081971037
323.1152039 0.018227073209457257
341.1245728 0.02454784217507194
359.1340027 0.13860641892650505
377.090271  0.02567034619399137
377.1452332 1.0
411.1630554 0.07426766429793324
429.1763611 0.1922088612523221
447.1833801 0.05974142111707277
499.2175598 0.02261870633244404


