PRECURSORMZ: 488.8967736199999
COMPOUNDNAME: casmi2022challengepriority117
FORMULA: C20H10Br2O5
SMILES: C1=CC=C2C(=C1)C(=O)OC23C4=C(C(=C(C=C4)O)Br)OC5=C3C=CC(=C5Br)O
INCHIKEY: ZDTNHRWWURISAA-UHFFFAOYSA-N
PRECURSORTYPE: [M+H]+
PRECURSORINTENSITY: 23053968.49219
IONMODE: positive
CHARGE: 1
PARENTMASS: 487.88949761999993
NUM PEAKS: 111
70.41487122 0.002199558747483798
75.91927338 0.002139994995026957
84.24215698 0.008311148714857287
84.24850464 0.007268225122817489
88.24099731 0.0030781861111402915
88.24643707 0.0026409125729728333
91.24681091 0.003221120281319084
94.18743134 0.0021028442329101447
95.04884338 0.003353161688748907
95.49176788 0.001932541933258444
105.0333481 0.00428964834059696
105.0444565 0.0028707621438284546
122.2184372 0.004976347478175108
133.0282593 0.004191709672556476
164.3821259 0.002200676950039256
172.5961151 0.0024363316217836817
179.0860596 0.0024104192241983734
184.1860046 0.0021434436131052164
189.0696259 0.025473529401887827
190.0766907 0.0033387422742344776
191.0859528 0.0027551473320680782
195.0439911 0.0023647066193834905
196.3433838 0.0022702715629895846
200.0626373 0.004331080528590975
201.0677338 0.00289581970255241
202.0773315 0.03240081121883754
205.0647278 0.002898849225914434
213.0684662 0.002991915161086501
214.9327698 0.0032870950729723685
217.0639038 0.003243955561720311
218.0725708 0.058896237497604094
219.0803223 0.013017098031148724
220.0399475 0.003572688950016593
228.0573425 0.0026754206166422156
229.06427   0.023282308486603693
230.0728302 0.01531874199535819
231.0804901 0.044129330901925626
233.060257  0.004403961301555438
234.0676422 0.0025929168101051408
242.0722656 0.009866309646582526
245.0600128 0.010519543095648247
246.0673065 0.11525500246521872
247.0747833 0.031263801199355165
257.0597229 0.02190032919667968
258.0367432 0.0031938031091892985
258.0674133 0.12409211841247147
259.0750732 0.06871225106930907
261.0549011 0.003975518687765747
273.0532227 0.005359302843056788
274.0617676 0.022958420250303653
275.0698853 0.024638033477032997
285.053772  0.02570374223301113
286.0621338 0.020880539229353512
287.0692749 0.021076078195222246
298.9701843 0.0036265187400536646
302.0573425 0.015160943080484957
303.0653381 0.010535722304348343
305.9524536 0.024434782630222186
306.9766235 0.0023121573217900365
308.9910583 0.04356724887188044
312.0415955 0.003395615714421762
318.9762878 0.003978259957378358
319.9813538 0.003984091630083074
320.9906921 0.19401335885060017
322.9697571 0.009503148266416522
324.9855957 0.0703991079748577
325.9943237 0.015016945364966892
326.9629211 0.003184775755185303
329.0458374 0.002582307928528324
330.0514526 0.0027452550486396694
331.0610962 0.00956955560687003
334.9708252 0.014777500341410836
335.9777527 0.07250206202672838
336.9854736 1.0
337.0804749 0.004116090657148265
337.10495   0.0036756695360317506
337.9935303 0.06474487849304615
338.9639893 0.0103984677757252
339.9722595 0.004321776020456752
346.9697876 0.03743672598116652
348.9854431 0.05271179871071558
351.9732361 0.0027085899789548334
352.9298706 0.003939696516442776
352.9804382 0.2772188389207319
353.9880066 0.02710387377305212
362.9646301 0.07593177173538482
363.9722595 0.1346117913400302
364.013855  0.0032307618142572133
364.9804077 0.5524271856363941
366.9586792 0.003113221891254148
379.9645386 0.003216658234364374
380.9752808 0.05024103152913995
381.9259033 0.004559758585083283
381.9831543 0.25828013839667274
382.0412292 0.0035808737420108573
384.8699646 0.01808622016357755
390.9593811 0.005039145087894562
392.974884  0.016188322496588907
402.8953247 0.0029575332494544745
408.9703064 0.08716940840089364
409.9773254 0.0029406191114165546
426.8970032 0.02867266840078687
442.8247375 0.004045759433099578
442.8912048 0.0885294225532984
444.8344727 0.0038686555894637087
444.9066467 0.2241019215962287
444.9788208 0.0038283091460475475
470.8854065 0.050994928434605916
488.8961792 0.5891070225238156
534.0665894 0.0023638707844157534
561.5784912 0.0024949396297491884


