PRECURSORMZ: 414.0214571839999
COMPOUNDNAME: casmi2022challengepriority77
FORMULA: C16H17BrClN3O3
SMILES: C1CC(C(NC1)CC(=O)CN2C=NC3=CC(=C(C=C3C2=O)Cl)Br)O
INCHIKEY: LVASCWIMLIKXLA-LSDHHAIUSA-N
PRECURSORTYPE: [M+H]+
PRECURSORINTENSITY: 3031622.25293
IONMODE: positive
CHARGE: 1
PARENTMASS: 413.01418118399994
NUM PEAKS: 28
64.78940582 0.0069852223434500454
82.06511688 0.0157658594434438
95.04273224 0.007443763935554165
95.04915619 0.16637099828386345
98.09633636 0.01354828202727854
100.0756607 0.30296681689883914
107.7715683 0.00595541365194398
110.0965042 0.07420797225232263
118.7962494 0.006599139772306983
120.0807648 0.043919792964798546
121.0646896 0.8887896924734872
121.0733109 0.018065280098649068
130.4150238 0.006772990819222976
138.0912018 1.0
138.1169128 0.008599147781068168
149.0910034 0.005757706075389319
169.0840302 0.006527707664542464
220.0515747 0.006760654951837072
258.9272461 0.025318910829968313
270.9261475 0.03311967135968708
288.9367371 0.035612273040694545
298.8868103 0.011643303184452787
298.9215088 0.17338289326146247
300.5456238 0.006639543094343359
377.9981079 0.03514492232771962
396.0099487 0.11975280016444242
541.0934448 0.006749092980694207
842.0546265 0.007481033590985277


