PRECURSORMZ: 865.2771826200001
COMPOUNDNAME: casmi2022challengepriority44
FORMULA: C40H50O21
SMILES: CC1C(C(C(C(O1)OC2=C(OC3=C(C2=O)C(=CC(=C3CC=C(C)C)OC4C(C(C(C(O4)CO)O)O)O)O)C5=CC=C(C=C5)OC)OC(C(C(=O)OC)O)OC(C)C(=O)O)O)O
INCHIKEY: HAVCNTVVRPOVNT-SLNRQDROSA-N
PRECURSORTYPE: [M-H]-
PRECURSORINTENSITY: 18469910.32617
IONMODE: negative
CHARGE: -1
PARENTMASS: 866.2844586200001
NUM PEAKS: 49
69.0330658  0.042064247756040084
69.39928436 0.006438509434260814
71.01238251 0.03547264111101359
72.99155426 0.028642320158319634
73.02799225 0.03093312260044141
84.99144745 0.030574852183310727
85.02806091 0.39556237341298645
88.021698   0.009110772578762248
89.02297974 1.0
91.77703857 0.00839999548054783
100.9865417 0.1130771304899731
102.4416046 0.006950195988885142
110.334816  0.006190751611263896
113.0229797 0.15904987781084512
116.0100021 0.08672729663858778
116.0664291 0.006699784285646165
117.0178528 0.6329579109485396
145.7848816 0.006255830595385131
157.0127716 0.035015128551909594
175.0034332 0.011261867182427058
189.0389099 0.013301497962038656
198.7002716 0.007516593206897242
217.0502014 0.00811912734215016
220.7654724 0.010069919736824704
235.910614  0.006651353959832596
265.04953   0.010950807313785269
281.045166  0.03236224564965841
295.0605164 0.013339833210901902
296.032135  0.010282328353174016
297.0397644 0.15917798815848883
298.0479126 0.01335430488475725
309.0397949 0.2056884245954817
311.0548096 0.03054859345576768
312.0628662 0.010880653680282347
321.1496277 0.006753781953537845
323.0543213 0.03092315261791043
323.0920105 0.07785349985392387
337.1074219 0.00773232515075688
351.0864868 0.18203238507175218
352.0944824 0.6308172098552693
352.1443787 0.013364327808271176
365.1009827 0.013122758956958618
366.1107178 0.13170876333252052
367.1179504 0.8582884512203559
367.1602478 0.01263301643976685
394.1075134 0.0072683956321872
464.1714783 0.006621005541356638
788.142395  0.006343346736578544
832.3001099 0.0067514064403996835


