PRECURSORMZ: 449.09870276800007
COMPOUNDNAME: casmi2022challengepriority92
FORMULA: C21H19ClN4O4
SMILES: COC1=CC2=NC=CC(=C2C=C1C(=O)N)OC3=CC(=C(C=C3)NC(=O)NC4CC4)Cl
INCHIKEY: WOSKHXYHFSIKNG-UHFFFAOYSA-N
PRECURSORTYPE: [M+Na]+
PRECURSORINTENSITY: 12759477.25
IONMODE: positive
CHARGE: 1
PARENTMASS: 426.1094847680001
NUM PEAKS: 20
50.32753372 0.08408688843881638
50.85979462 0.0734531408734147
52.1652832  0.06794884756993282
55.54515839 0.0711184265867752
93.69645691 0.08546757213202798
103.4726028 0.07350217253450413
113.6851501 0.07672990688675643
115.7777405 0.07599295179982353
142.1411896 0.08701646143791696
145.2971039 0.08584913260387242
221.1073914 0.09927260535902546
221.1298981 0.08407930964197749
238.9999695 0.07424661744627709
269.5267639 0.08044927625321274
287.2294922 0.09366021916230352
359.6577454 0.07772238147311751
392.0418701 0.12538685835010238
433.6103516 0.09931339497744965
434.073761  0.10945388985589936
449.0993958 1.0


