PRECURSORMZ: 305.118318436
COMPOUNDNAME: casmi2022challengepriority60
FORMULA: C20H18O3
SMILES: C1=CC(=CC=C1CC2=CC(=C(C=C2)O)CC3=CC=C(C=C3)O)O
INCHIKEY: YQOVRUAPWCGSLC-UHFFFAOYSA-N
PRECURSORTYPE: [M-H]-
PRECURSORINTENSITY: 39271610.83594
IONMODE: negative
CHARGE: -1
PARENTMASS: 306.125594436
NUM PEAKS: 30
52.76774979 0.011131176080946579
52.77087021 0.004439729113854474
52.9054718  0.0011556243699220956
54.20306015 0.000966449518075011
64.34745789 0.0012821735541088336
65.03844452 0.001966318195825987
75.88206482 0.0009558715484106944
93.01847839 0.013231753601587922
93.02175903 0.002201439430950838
93.03317261 1.0
93.05214691 0.006569685837132064
105.034256  0.0013040662958031142
108.8029709 0.0009941737654837095
117.0334625 0.00670859525045896
121.0281143 0.01804297340135522
123.0439835 0.004609248548669079
146.9606323 0.0016238801127615515
169.0644531 0.006133765267794835
183.080246  0.01216015921916575
193.063736  0.002296422122842582
196.052063  0.004955845448295252
209.0604858 0.01674473016654027
210.0675812 0.03558143858897785
211.0266113 0.00984303358320355
211.0393219 0.0017433081759758806
211.0755615 0.9282860334982969
211.1391296 0.005127888167314429
215.138504  0.001220750521026109
221.2822266 0.0017570353951783396
221.3046112 0.0013032265733362836


