PRECURSORMZ: 784.9837226779999
COMPOUNDNAME: casmi2022challengepriority61
FORMULA: C15H9F24O4P
SMILES: C(C(C(C(C(F)F)(F)F)(F)F)(F)F)OP(=O)(OCC(C(C(C(F)F)(F)F)(F)F)(F)F)OCC(C(C(C(F)F)(F)F)(F)F)(F)F
INCHIKEY: BSOLVVCARHZLMT-UHFFFAOYSA-N
PRECURSORTYPE: [M+FA-H]-
PRECURSORINTENSITY: 7906832.664062
IONMODE: negative
CHARGE: -1
PARENTMASS: 739.9855216779999
NUM PEAKS: 15
67.48021698 0.12395938043487616
77.20856476 0.1105226142298006
92.99420166 0.19203299897263768
97.26519012 0.1250551940322814
98.08409882 0.1341297928745809
101.7040024 0.14325017419287997
142.9907227 1.0
215.8687286 0.11572811437492837
221.130188  0.20317920789495122
262.5752258 0.12038821878784103
292.9621887 0.24117609259073458
302.8456421 0.12968146825023452
343.2610168 0.14328211614493266
484.9615784 0.17793664282669572
541.3012695 0.14350235842527953


