PRECURSORMZ: 358.114351948
COMPOUNDNAME: casmi2022challengepriority144
FORMULA: C14H19NO7
SMILES: C1C(C=CC(=CC#N)C1OC2C(C(C(C(O2)CO)O)O)O)O
INCHIKEY: UTHVFIKQCUKKQW-QPQKLBPSSA-N
PRECURSORTYPE: [M+FA-H]-
PRECURSORINTENSITY: 14306337.20996
IONMODE: negative
CHARGE: -1
PARENTMASS: 313.116150948
NUM PEAKS: 10
58.95903015 0.16678196800475587
59.01256561 1.0
63.49282455 0.16293054892879116
71.01231384 0.3135288413703935
132.044342  0.31470529471591563
132.848587  0.20235620246145447
157.1766205 0.17039212757396072
202.5828857 0.19504056037817413
220.7619324 0.276657656708759
289.7895203 0.1798900594780244


