PRECURSORMZ: 327.030871668
COMPOUNDNAME: casmi2022challengepriority101
FORMULA: C14H14Cl2N2O3
SMILES: CC=C1C(=O)N(C(C(=O)N1)CC2=CC(=C(C(=C2)Cl)O)Cl)C
INCHIKEY: AEFDYPFFZOCXNS-NSHDSACASA-N
PRECURSORTYPE: [M-H]-
PRECURSORINTENSITY: 29790251.82422
IONMODE: negative
CHARGE: -1
PARENTMASS: 328.03814766799997
NUM PEAKS: 37
54.0337677  0.0009261631104753897
54.79079437 0.0008299607114547463
57.51412201 0.0008394734210048538
68.08126068 0.0009099780667242074
82.02846527 0.002041280182670253
98.02290344 0.0019761496366424223
98.05973053 0.0011172492426961857
102.9472275 0.005603379137073037
108.0075455 0.003532620078736015
108.0440826 0.009573761208563967
110.0230942 0.0012516196879404072
110.0470963 0.006684917470696055
111.0548706 0.0019406372377023954
123.031189  0.0009601866834168467
123.0548248 0.005255480094430975
125.07061   0.0090069739158246
126.0543976 0.0015691695294294255
135.0548706 0.01247632559931278
137.0351715 0.0035684769084734216
138.0163116 0.0026726601581108208
138.04216   0.3465055005402493
138.0758362 0.0014380385954687641
145.6962891 0.001274540959075
146.937088  0.001223084883911712
151.0500031 0.005189371626072452
153.0301514 0.00824718834986516
153.0346375 0.009020278205186295
153.0657043 1.0
153.0771179 0.015069266409144525
153.0883636 0.00911824307678671
153.0949249 0.005995893392586204
153.1056061 0.0050250763222862
173.9633942 0.12368955651275255
173.9772186 0.001960170417191887
205.9529572 0.006271793946354134
273.0447998 0.0012907880825785442
327.0292969 0.001495588520675381


