PRECURSORMZ: 1129.5436276320004
COMPOUNDNAME: casmi2022challengepriority235
FORMULA: C55H86O24
SMILES: CC1C(C(C(C(O1)OC2C(C(COC2OC3CCC4(C(C3(C)C)CCC5(C4CC=C6C5(CCC7(C6CC(CC7)(C)C(=O)O)C(=O)OC8C(C(C(C(O8)COC9C(C(C(C(O9)COC(=O)C)O)O)O)O)O)O)C)C)C)O)O)O)O)O
INCHIKEY: YYJQHCMKQJHGGA-VBJBMQEVSA-N
PRECURSORTYPE: [M-H]-
PRECURSORINTENSITY: 5267757.553711
IONMODE: negative
CHARGE: -1
PARENTMASS: 1130.5509036320004
NUM PEAKS: 28
83.01235199 0.0077691672063317984
85.02780914 0.026223693813971865
85.99981689 0.0053410587057947665
87.00717926 0.02328696731721805
97.027565   0.0072109221821597055
101.0228043 0.05845560456412087
115.0379105 0.009061717291053619
125.0229874 0.021941288590409475
131.0331573 0.02997158694911148
143.0334473 0.010054463917474618
143.3413391 0.007848342450839492
161.0436707 0.0077108134316650105
213.8809509 0.005497058803270727
217.2397919 0.023008590779009203
217.2610779 0.005743989163356639
221.0656281 0.008758321936654729
275.4336853 0.005764458176480115
305.6333923 0.005643549710324088
367.1203003 0.006793810824950216
441.3365173 0.17227527759593075
511.3367004 0.005947755562152612
527.3352051 0.00930603253451142
571.3621216 0.009570000682919319
573.3792725 1.0
574.3864136 0.006884631933091978
617.3692017 0.0799085952316954
659.3834839 0.062336149962031386
730.0366821 0.0062911810224555755


