PRECURSORMZ: 399.2752129999999
COMPOUNDNAME: casmi2022challengepriority150
FORMULA: C22H40O6
SMILES: CCCCCCCCCCCC(=O)OC(C(C)C)C(C(=O)O)OC(=O)C(C)C
INCHIKEY: FLVBOVQKMCPBFE-UHFFFAOYSA-N
PRECURSORTYPE: [M-H]-
PRECURSORINTENSITY: 42490453.39453
IONMODE: negative
CHARGE: -1
PARENTMASS: 400.2824889999999
NUM PEAKS: 17
75.15202332 0.0009181367425103085
87.0434494  0.0022646671170516923
117.7288666 0.0008615048504808767
125.6749496 0.0009494795538159751
129.0540161 0.0053112106548032865
171.1380615 0.002242212725678158
185.1344604 0.0020757167504442207
185.1535339 0.07828158842396739
199.1160889 0.006182271787910303
199.1238861 0.008178035809056218
199.1692047 1.0
199.2033081 0.007730683386027448
199.2125244 0.00681093779294163
199.2284546 0.002773156531990491
216.2469482 0.004522851593958393
304.2833862 0.0009897145540305938
366.286499  0.001142850343957973


