PRECURSORMZ: 235.170354008
COMPOUNDNAME: casmi2022challengepriority87
FORMULA: C15H24O2
SMILES: CC=C(C)CCC=C(CCC=C(C)C)C(=O)O
INCHIKEY: JWBZQRMMZRWOSE-UHFFFAOYSA-N
PRECURSORTYPE: [M-H]-
PRECURSORINTENSITY: 755017.1567383
IONMODE: negative
CHARGE: -1
PARENTMASS: 236.177630008
NUM PEAKS: 9
56.94164658 0.1700517014893443
63.57013702 0.1864759062747173
81.99616241 0.16664913244045554
110.1816711 0.15951970607241622
132.6296234 0.1682901461844904
138.9272614 0.20808198944229975
175.9781342 0.17816090644856092
176.8199615 0.16167242948243452
215.5922089 1.0


