PRECURSORMZ: 424.17305758399993
COMPOUNDNAME: casmi2022challengepriority171
FORMULA: C22H27NO6
SMILES: CCC(C)C1C(=O)C(C(=O)N1)(C2=CC3=C(C(C2=O)(C)CC)OC(=C(C3=O)C)C)O
INCHIKEY: VBTZAIPQSNXYCM-BXAUHREASA-N
PRECURSORTYPE: [M+Na]+
PRECURSORINTENSITY: 5305277.5625
IONMODE: positive
CHARGE: 1
PARENTMASS: 401.18383958399994
NUM PEAKS: 25
56.39668655 0.007522793420687841
69.99467468 0.008104886367609924
106.038681  0.008223685708236223
108.9812393 0.0075143052562980745
109.6315155 0.0077442702808979275
138.0392151 0.006971554626105447
192.0626984 0.007565753776836472
193.0712433 0.06397729834254834
215.8003082 0.027639557650727946
215.8247833 0.02361747022416992
221.7309723 0.008527232711150667
226.0602264 0.043686809681331026
227.0683746 0.029305842859503748
241.0473022 0.05183917123045888
254.0548401 0.0396918242156702
255.0992279 0.1158765306534479
283.0588074 0.016155511900445667
310.0692749 0.011826857017840168
338.1000671 0.0817845826419653
352.1895447 0.017121487773192876
364.023407  0.009134148660657503
367.1378479 0.08992354199743406
378.1311646 0.03934672342024659
396.1412354 0.4233979653173993
424.1724243 1.0


