PRECURSORMZ: 103.08658894
COMPOUNDNAME: casmi2022challengepriority200
FORMULA: C4H10N2O
SMILES: CCCNC(=O)N
INCHIKEY: ZQZJKHIIQFPZCS-UHFFFAOYSA-N
PRECURSORTYPE: [M+H]+
PRECURSORINTENSITY: 24291804.57031
IONMODE: positive
CHARGE: 1
PARENTMASS: 102.07931294
NUM PEAKS: 17
51.97031403 0.00416381317364931
58.06532669 0.023052643136301756
60.07361603 0.00484667956349274
60.08094406 0.7153537687328584
60.09010696 0.004052857225937326
61.03978348 0.2209693747727479
78.13811493 0.0037687764845245005
82.75898743 0.004211342881730748
86.06004333 0.031402766284894496
86.09629822 0.016564269624519828
103.0701141 0.007738608042534363
103.0865021 1.0
103.1066589 0.0044851699453503455
130.4116821 0.00443182912193534
213.4918671 0.004230152394251695
218.1341553 0.004322764403897602
227.2094574 0.0041040628023226566


