PRECURSORMZ: 251.164170564
COMPOUNDNAME: casmi2022challengepriority40
FORMULA: C15H22O3
SMILES: CC1=C(CC2(C13CCC(C3CC2)(C)O)C)C(=O)O
INCHIKEY: ODEUPBSFCFNAST-MXAVVETBSA-N
PRECURSORTYPE: [M+H]+
PRECURSORINTENSITY: 20540411.27051
IONMODE: positive
CHARGE: 1
PARENTMASS: 250.156894564
NUM PEAKS: 72
55.86027145 0.0008352555279964637
62.78819656 0.010137444789451257
62.79237366 0.006934819251189181
69.06996918 0.0010013150569735884
71.04885864 0.0008863709827652644
79.05386353 0.0007879156847325246
81.06990051 0.009989385922173294
82.30738831 0.0006317399737301311
91.05490875 0.0008677695199860738
93.06986237 0.012211598575115147
95.08551025 0.03752523240223926
99.08056641 0.0009751023283703313
105.0696793 0.011462323922147199
107.0856628 0.010779537424788108
109.0645676 0.0011472869081265282
109.1008148 0.006304624789444892
111.0798569 0.0008539678772982116
119.0854416 0.01679220943713325
119.0943222 0.0012326778593964591
121.0646896 0.0008873958750691104
121.1011734 0.0033048288504812892
123.0805664 0.0011035986127469497
125.0596085 0.0030090912627705473
125.0955963 0.0006908227867487681
131.0857239 0.005506009114693142
133.1008911 0.01489461384678494
134.1090393 0.003466997157565711
135.0800171 0.0010507179240992791
135.116333  0.004587667819541742
137.0601349 0.0020942257379890903
139.0752258 0.007545156074918635
145.101059  0.016533145702066234
147.1166687 0.05350179837055089
147.130127  0.0011224131467140802
149.0597382 0.0010581821285375087
149.0961456 0.0009505790653326413
151.0750427 0.004543508132129158
153.0920105 0.0009784984145912487
157.1009979 0.001607178691035433
159.0810547 0.0013478940531090552
159.116745  0.01303294250624306
161.1322021 0.012289583127140756
163.0751495 0.0037437811059071904
163.1117554 0.0015092387915704253
163.147934  0.0010956364134552868
165.0914764 0.0010789708652673257
171.1164246 0.0007862872564792863
172.0661469 0.0006900849314186188
173.0964203 0.005090089183394653
173.1314545 0.0030010159393359425
175.1113586 0.004234004455032621
177.0907135 0.007649031386832974
187.1115112 0.003424359549280795
187.1279755 0.0012875221842660047
187.1479797 0.07926073954368933
189.1635284 0.0011058484157567938
191.1063232 0.004011370920609148
191.1422577 0.0010739978782187125
197.132431  0.006014567525456761
205.1582184 0.01377609403527174
215.1429443 0.03514486971122007
218.1291199 0.001449994061852694
231.1377258 0.0031305527793592507
233.1534119 0.04407439528954848
251.1008148 0.00943046712921695
251.1147308 0.004779623826770866
251.1639557 1.0
251.2129822 0.0070954898443459525
251.2227325 0.0040468565968152515
251.2457733 0.004170522915381112
253.9514618 0.0007519246170944302
263.6207886 0.0006909597166866319


