PRECURSORMZ: 944.5213455280004
COMPOUNDNAME: casmi2022challengepriority123
FORMULA: C47H74O18
SMILES: CC1C(C(C(C(O1)OC2C(C(COC2OC3CCC4(C(C3(C)C)CCC5(C4CC(C6=C7C(C8(CCC7(CCC65C)C(=O)O8)C)(C)O)O)C)C)O)OC9C(C(C(C(O9)CO)O)O)O)O)O)O
INCHIKEY: MOVNHXBNDSZSGK-JPYQVWQLSA-N
PRECURSORTYPE: [M+NH4]+
PRECURSORINTENSITY: 1664759.6875
IONMODE: positive
CHARGE: 1
PARENTMASS: 926.4875225280005
NUM PEAKS: 35
69.03350067 0.24532271160777497
71.04934692 0.6843455030714722
73.02812195 0.07478724793152866
79.05408478 0.07328095721646935
81.07004547 0.060440339635011144
83.04898834 0.2598714114892142
85.02297974 0.05776669173602702
85.02846527 1.0
91.05450439 0.04456069355874223
93.06952667 0.1699844496582431
95.08571625 0.0896447281229292
97.02835846 0.17215523242929617
105.0698318 0.06560343181143202
107.0853729 0.17818941011171313
109.101593  0.05118052607240654
109.3318939 0.04421606913797853
111.0431213 0.041529960738863884
119.0854874 0.21701356517825157
121.1011353 0.09681134187847874
133.1009521 0.10563671689055136
143.0856781 0.05051814049496234
145.10112   0.19215095741035598
147.1161194 0.0712812522140675
157.1018219 0.05924938649378503
159.1164703 0.19475248106932644
161.1325378 0.06337586472076974
163.1704712 0.04753614264184845
163.4506989 0.046531437312376765
171.1160736 0.06310424223941592
173.1319427 0.07064143200495683
201.1270447 0.06252632531929289
201.1634216 0.046237107898271346
218.181488  0.0612604732754464
223.5491638 0.03886019170495022
929.1685791 0.04662486982868634


