PRECURSORMZ: 1307.6277478759998
COMPOUNDNAME: casmi2022challengepriority165
FORMULA: C61H98O27
SMILES: CC1C(C(C(C(O1)OC2C(OC(C(C2O)O)OCC3C(C(C(C(O3)OC(=O)C45CCC(CC4C6=CCC7C8(CCC(C(C8CCC7(C6(CC5)C)C)(C)C)OC9C(C(C(CO9)O)O)OC1C(C(C(C(O1)C)O)O)O)C)(C)CO)O)O)O)COC(=O)C)O)O)O
INCHIKEY: NNIRVDLUHWUBSX-NBIDALDTSA-N
PRECURSORTYPE: [M+FA-H]-
PRECURSORINTENSITY: 5291126.261719
IONMODE: negative
CHARGE: -1
PARENTMASS: 1262.6295468759997
NUM PEAKS: 44
97.02804565 0.017872054947592333
99.50537109 0.0023155630750044632
101.0229645 0.06069057081412304
103.038475  0.00459860513167618
109.0282288 0.0035227998857352166
113.0228271 0.010483171990781451
115.0386353 0.01500396896728936
119.0329437 0.002010354052710963
125.0230789 0.036847202232614826
127.0389099 0.003421146324391415
131.0337067 0.031068070478802775
132.4597626 0.0018724650440256564
143.0337524 0.032997030205675945
143.1174927 0.0018952097392109094
145.0494843 0.00781714170564557
161.0441132 0.009139752604431492
163.0600433 0.010961055293081874
173.7216034 0.001905394593728441
185.0457153 0.0022288347340847165
187.3538666 0.010123174199441979
187.3745575 0.005802275373973485
203.0547943 0.007474767752499482
205.0708771 0.04069267179995797
221.065567  0.011732749891029223
245.0652618 0.002665772210663809
247.0818939 0.012702478480348504
263.0747375 0.003014045008885821
304.3001099 0.00294400531073853
305.088623  0.0026343946128290544
323.0974121 0.009783667625037903
349.1112671 0.0034755917297660307
367.1242676 0.014581668778951697
391.1233826 0.0024453773904114223
409.1337891 0.007095863020309707
469.1559753 0.015307222569174012
471.3470764 0.04176043337867634
555.3431396 0.0018411876642454483
559.402771  0.0047054079797449275
585.3798828 0.014686611102204686
603.3895874 0.03260619848646602
705.4593506 0.004365354100524828
749.4473877 1.0
750.4489136 0.008828999784185353
791.4610596 0.010152368289922485


