PRECURSORMZ: 553.2619321639999
COMPOUNDNAME: casmi2022challengepriority244
FORMULA: C26H42O11
SMILES: CC1(CCC2C(C1O)OC(=O)CC3C2(CCCC3(C)C(=O)O)C)CCOC4C(C(C(C(O4)CO)O)O)O
INCHIKEY: LZIOIGRHSJIZED-UHFFFAOYSA-N
PRECURSORTYPE: [M+Na]+
PRECURSORINTENSITY: 1322222.759766
IONMODE: positive
CHARGE: 1
PARENTMASS: 530.2727141639998
NUM PEAKS: 17
53.10378265 0.01736116626979668
60.85525894 0.01893032461262834
61.21629715 0.01726437372724615
61.47121048 0.02249254897818711
61.47425079 0.019753501074270933
82.97062683 0.020729161288694824
94.89885712 0.0191253935069296
131.9834747 0.019881595968092355
253.3592224 0.02217443525163339
270.9356995 0.021045079415658488
280.4535217 0.019329213772832882
373.196106  0.035828655568557806
391.2073059 0.20625936351133806
463.2662354 0.03625573710355576
489.2125549 0.02120531073308055
535.2489014 0.11778830036777735
553.2610474 1.0


