PRECURSORMZ: 491.1406262719998
COMPOUNDNAME: casmi2022challengepriority107
FORMULA: C19H26O12
SMILES: C1C(C(C(O1)OCC2C(C(C(C(O2)OCC3=CC4=C(C=C3)OCO4)O)O)O)O)(CO)O
INCHIKEY: PPLHEXYBZJOGTR-DHKQUUGRSA-N
PRECURSORTYPE: [M+FA-H]-
PRECURSORINTENSITY: 50270441.5625
IONMODE: negative
CHARGE: -1
PARENTMASS: 446.1424252719998
NUM PEAKS: 33
52.97379684 0.01245009057606862
53.32568741 0.011387172081672213
54.73273468 0.012038423567127097
55.01761246 0.22127120519504415
57.03327942 0.1321245779062848
59.01250839 0.818903278920686
69.03330231 0.022825619743862505
69.7502594  0.0117649556907994
71.01248932 1.0
71.01612091 0.012574906580695915
72.99173737 0.053816726845468156
73.02812958 0.42067568316431475
75.00733185 0.0219511097492556
77.18983459 0.01372038643374591
81.03321838 0.017025325215443123
83.01243591 0.2216673928688754
85.0226593  0.024566705385377946
85.02812195 0.5863839440132506
87.0072403  0.05339255050546209
87.92449188 0.013355584141844611
95.01242065 0.09747255372175916
97.0278244  0.076959505443619
99.00737    0.13124100170268158
101.0230865 0.3805829103794035
111.0071411 0.01809997658405347
113.0230408 0.12000715155242474
121.0278702 0.02051894074805709
123.0440521 0.04888976178032184
125.0223007 0.018335574645075577
151.038269  0.015153525440076844
158.8976288 0.015066342691743758
221.295929  0.025002263722595827
495.7515869 0.013422608440461857


