PRECURSORMZ: 792.6583507360001
COMPOUNDNAME: casmi2022challengepriority175
FORMULA: C14H8I4O4
SMILES: C1=C(C=C(C(=C1I)OC2=CC(=C(C(=C2)I)O)I)I)CC(=O)O
INCHIKEY: PPJYSSNKSXAVDB-UHFFFAOYSA-N
PRECURSORTYPE: [M+FA-H]-
PRECURSORINTENSITY: 22048509.53125
IONMODE: negative
CHARGE: -1
PARENTMASS: 747.6601497360001
NUM PEAKS: 46
109.0281143 0.017881976565660002
109.9872589 0.007591010001796243
111.0438995 0.013813137759209346
112.075325  0.13264137294795375
113.0786743 0.01608021325156501
122.0597534 0.034305481269550846
123.0631714 0.008748836604638462
123.0800934 0.01139207258032661
124.0749435 0.0314745243970788
125.095665  0.014773694892185753
126.0546341 0.02052053702029738
126.8929672 0.021060045065090707
126.903595  0.5804132274576551
128.0703888 0.2871549265449119
129.0738983 0.08071277884218679
135.8878174 0.00824454560062577
140.0702667 0.019298544528124604
140.0830536 0.007873167479000196
148.0392914 0.010978363196771158
150.0545197 0.08055170288700747
151.05867   0.01890531376526681
152.0716858 0.00977866313178806
166.0498199 0.04606328059771295
167.0576019 1.0
168.0647125 0.8355172292335754
168.9969635 0.008508786769385887
169.0690155 0.24415135363434345
170.0705261 0.056815689471876
176.0704651 0.04846205210707266
176.1067657 0.01596885174460555
177.0735779 0.02042711232028023
178.085968  0.02013855682702452
179.0899963 0.011745830689979543
181.7744904 0.010591254651991386
186.0911102 0.009086510847338167
189.0781403 0.018980611581360312
190.0854797 0.03594769421365317
191.0895233 0.015269462869184658
204.1022339 0.10306952907660016
205.1054077 0.04874655635171777
215.0968018 0.07913089111428424
216.1025085 0.013553675225156624
237.1422424 0.008791639953189616
304.2953491 0.009666664307890005
1341.431763 0.00981438331752019
1527.153564 0.009539253098140507


