PRECURSORMZ: 542.1656915879997
COMPOUNDNAME: casmi2022challengepriority100
FORMULA: C27H24O11
SMILES: C1C2=C(C(=C3C(=C2)C=CC=C3OC4C(C(C(C(O4)COC(=O)C=CC5=CC=C(C=C5)O)O)O)O)O)C(=O)O1
INCHIKEY: ZPUVNNIJVVEZBH-CMBBOZRESA-N
PRECURSORTYPE: [M+NH4]+
PRECURSORINTENSITY: 26669114.57422
IONMODE: positive
CHARGE: 1
PARENTMASS: 524.1318685879997
NUM PEAKS: 37
53.03878403 0.014180318457829513
57.03370667 0.003651884976452398
57.13700867 0.00158998346074337
64.3746109  0.0021546650194446157
65.03865814 0.02803806654904691
69.03353119 0.02141222952613483
69.20429993 0.001992208085090273
73.02835846 0.0022091560141093186
81.02799988 0.0025654049001404707
81.03343964 0.06766020181493618
85.02827454 0.013692059735922425
91.05419922 0.3184255109509035
91.06095123 0.004320932333232346
91.07135773 0.0025047155963700087
92.4200058  0.001962646148394447
97.02845001 0.007365165354582553
99.04374695 0.004213057231456705
109.0283203 0.003534798387797818
110.7729111 0.001904141743142198
119.0289993 0.007878391443099604
119.049057  0.8074393913649407
119.0683212 0.002591276292636665
119.0747375 0.008115145229776436
136.4067535 0.002000862790697098
147.0042419 0.002034767098924951
147.0160217 0.010406031568772007
147.043869  1.0
147.071106  0.0060958369735055395
147.0777588 0.004678314516562223
171.0437012 0.01001324610652332
173.6774902 0.001788120250796504
199.038559  0.03165150938460479
213.2713013 0.0019435549500448188
217.0503387 0.003753084507302056
220.0457001 0.003099085771477925
234.5763397 0.0018216773144102973
305.9217224 0.0017775668006116305


