PRECURSORMZ: 483.203779376
COMPOUNDNAME: casmi2022challengepriority199
FORMULA: C28H28N4O4
SMILES: CC1C(=O)N2C3C(CC2(C4=NC5=CC=CC=C5C(=O)N14)O)(C6=CC=CC=C6N3C(=O)C)C(C)(C)C=C
INCHIKEY: UTVHCNQHDCRVMF-GTYYOKPTSA-N
PRECURSORTYPE: [M-H]-
PRECURSORINTENSITY: 14857603.16406
IONMODE: negative
CHARGE: -1
PARENTMASS: 484.211055376
NUM PEAKS: 47
53.01929855 0.006812505472420652
56.37836075 0.0015642931373625218
82.77321625 0.0015388959374986507
91.78807068 0.0016035906675042017
97.92912292 0.0019380088899473766
129.0570374 0.0035600868582434065
145.0027313 0.005992110240778248
145.0393677 1.0
145.0494385 0.01591511465891469
145.0673065 0.013709907678198538
170.0350342 0.0027179100372076697
171.0550385 0.005865379282289623
172.0635834 0.002561360409270322
173.0709381 0.005764132509124832
184.1106415 0.010911861580179016
185.0711212 0.030081010067051266
193.2334595 0.0018668049048738272
197.0583954 0.026133144717234862
199.0505524 0.0030807714295002435
208.0862579 0.012709696964190132
212.0184937 0.004276623064036545
212.0820007 0.6556344731387437
212.099762  0.009870574369095293
212.1304626 0.007629694476475888
216.4436798 0.006423334944599829
224.094101  0.0023958968555746274
241.1340179 0.14258056435731892
241.157959  0.003498056948642289
241.1620483 0.004050502814786026
247.0948639 0.0016902636789091394
265.1350708 0.01083576073048762
283.1447144 0.0025829564655342405
299.0924683 0.008458571529907088
300.1011047 0.00614375318966405
301.0831604 0.0020410932477591573
327.0880432 0.11576456737726909
328.1319885 0.0032605368985878813
341.1040649 0.03340901837370396
342.1117859 0.11818121759225607
343.1161499 0.001718521718962027
353.1041565 0.00778667002394511
354.1115112 0.018439637599783912
355.1194458 0.034370693050067076
369.1268616 0.002357589911010868
369.1707458 0.010210436644443821
370.192627  0.0026711422441653945
411.1815796 0.06236976327203121


