PRECURSORMZ: 519.3316298119998
COMPOUNDNAME: casmi2022challengepriority14
FORMULA: C30H46O7
SMILES: CC1CCC2(CCC3(C(=CCC4C3(CCC5C4(CC(C(C5(C)C(=O)O)O)O)C)C)C2C1(C)O)C)C(=O)O
INCHIKEY: FYGSMJAMPMZYFS-XOTGQYDDSA-N
PRECURSORTYPE: [M+H]+
PRECURSORINTENSITY: 3370443.875
IONMODE: positive
CHARGE: 1
PARENTMASS: 518.3243538119998
NUM PEAKS: 26
55.05419159 0.13800641984386283
67.0541687  0.26540411907841155
69.07062531 0.14249805656595074
71.85852814 0.1333599845927767
80.49028778 0.1323241918469962
81.06972504 0.31118814445124793
91.05423737 0.2518258011907065
93.06976318 0.4855889356492923
95.08518219 0.490609506998867
105.0696716 0.7382509894984437
106.7350235 0.13608072964929285
107.0853348 0.7781156804072796
109.1013107 0.16538115349823393
119.0850525 1.0
121.10112   0.21389655521306147
131.0849915 0.5914902632952427
133.100769  0.49049821033766666
140.8092651 0.12024894238118627
143.0849762 0.23586254411545457
145.1009216 0.7168692579788486
157.1013184 0.2876717159220342
159.1171722 0.4978937282177608
171.1181183 0.13228423374102166
185.1318665 0.21805452734982972
238.8518372 0.1517493160414478
401.852478  0.13215088561488406


