PRECURSORMZ: 335.22168543999993
COMPOUNDNAME: casmi2022challengepriority97
FORMULA: C20H30O4
SMILES: CC12CCC3C(C1OCC2)C(=O)CC4C3(CCCC4(C)C(=O)O)C
INCHIKEY: KKUZEALMRZIWAJ-UHFFFAOYSA-N
PRECURSORTYPE: [M+H]+
PRECURSORINTENSITY: 197150806.9844
IONMODE: positive
CHARGE: 1
PARENTMASS: 334.21440943999994
NUM PEAKS: 159
55.05461121 0.017146471904398854
59.04934692 0.013606076132980191
61.02856064 0.012685074705236362
67.05435181 0.037591777363161306
67.79860687 0.007623718187100423
69.03355408 0.003264770049644584
69.06978607 0.023113548556590025
73.02838135 0.0038812070519594426
79.05428314 0.04214306922433058
81.06987762 0.11928743561248414
83.08540344 0.02174814761206131
85.06481171 0.013614434937475321
91.05419922 0.023783036655327855
93.06980896 0.2273978617351181
95.04885101 0.0061859363432830924
95.08547211 0.20545563613362963
95.09085083 0.004688610297097151
97.06484985 0.08265629787717672
97.10124969 0.041299062069375295
99.0801239  0.00814140864736731
105.0698776 0.09399996960042173
107.0771179 0.005398489028688566
107.0854492 0.30205926052334947
109.0648041 0.017892151105249214
109.1010666 0.2911160341539262
109.1097107 0.006256930585672057
111.0800476 0.03402733397080328
111.1168518 0.003876905392885186
113.0961304 0.005100665461450053
115.075386  0.00800563016166703
117.0696411 0.023127083709729625
119.0854187 0.17541618922632038
119.0951385 0.005897455032805636
121.0649033 0.02444027640125647
121.1010437 0.24281003338080964
123.0800323 0.027001633027345456
123.1167831 0.10374471850508692
125.0958481 0.07655060303436154
129.0698547 0.003963845110089655
130.0774536 0.005233339757259367
131.0853882 0.14573200284512416
133.1010437 0.30094991773114127
134.9554291 0.003378412762882944
135.0802002 0.06458036750326536
135.0983429 0.004116913086051188
135.1166229 0.12686421095649164
137.0958099 0.07896324138266955
137.1322327 0.014732312497646623
139.0747375 0.006108598779802382
139.1115417 0.04765118349358172
139.9003143 0.00318712293079916
143.0853271 0.03208596897101228
145.1010132 0.48330793701898284
147.0802765 0.05009625093746427
147.1166687 0.14304132926301405
149.0820007 0.00479976307328682
149.0958862 0.21388526646439432
149.1096497 0.0035576458588174494
149.1321564 0.027180647248475444
150.2430878 0.00313019982843238
151.1115417 0.0563765404036304
153.0908051 0.18466880177644082
153.1274567 0.006366946076502612
155.0853729 0.006796364409071925
157.1010284 0.08501722239744201
159.0800934 0.014990062274226995
159.1165161 0.20248599460338396
161.0962677 0.025248503598031904
161.1321564 0.07864509079628586
163.0751495 0.0031834163629011836
163.1115417 0.16241149145512762
163.1472778 0.007510350754134083
165.0904999 0.03753188069409146
165.1270447 0.024960618728143827
167.1065521 0.07190019732089899
169.1009369 0.03396010513072337
171.1165466 0.18624363811098402
173.0956268 0.016664034051673066
173.1324463 0.06526182759500991
175.1117096 0.08462120743670411
175.1479034 0.059368040267005026
177.1272888 0.06469206004469429
179.1063843 0.020955593038772934
179.1429291 0.005791439202397974
181.1222229 0.022159509178081765
183.1008148 0.0055251811063511975
183.1167145 0.049675169279015274
185.1321411 0.06327410971553249
187.1118927 0.020008503677485346
187.1478882 0.03400053138808274
189.127182  0.20997332437006375
189.1635132 0.0048076182768137235
191.1065674 0.020487135105743896
191.1426086 0.005873141847368554
193.1221771 0.05739579853646758
195.0994568 0.00470532196866978
197.1322937 0.14455907138960963
199.1480713 0.08690560620040853
201.1273804 0.06208084854204659
201.162323  0.02943907250886683
203.1066132 0.005738236162060152
203.1434021 0.017946218309735085
205.1223602 0.048101783833435184
205.1582184 0.06294563881777422
207.1375732 0.06712176792892854
209.1149902 0.006456483953686243
209.1342163 0.004607039894610189
211.1474915 0.07593940742240249
213.1632538 0.04167486390143351
215.1430511 0.11565148196216841
215.1784821 0.02950610487439965
217.1220398 0.03747609055896188
217.1582489 0.0064372537375072415
217.1951904 0.016724370089647667
219.1371918 0.02510550683178704
220.1188049 0.00684045837123205
223.149826  0.0048209731483634145
225.163681  0.07139526205300098
227.1789093 0.09498806816552709
229.1586761 0.03506217188750636
229.1944275 0.043265517516547905
231.1388397 0.008139989604553304
231.1729736 0.0055474744902629805
231.2109833 0.01407053224652538
233.1160889 0.013001557417030742
233.1549683 0.006693566659020712
237.1633759 0.006515859749300205
241.1947479 0.1553584783905634
243.1391144 0.0316427547786928
243.1737671 0.053327423839556555
243.2096558 0.05330826865074581
245.1534119 0.020568300684301415
245.1895142 0.020423799052569507
251.1793671 0.014960294221281985
253.1946869 0.48442501788566095
253.8539734 0.003986064816046279
257.1540222 0.01325046475946161
257.1879272 0.003939832573890838
259.1776123 0.004640919879147858
259.2054443 0.22076268741944544
261.1484985 0.028688474967156364
261.2205811 0.011575184591075581
263.1795349 0.015698844202852242
269.1889648 0.04111570597666073
271.1759644 0.02999698897358933
271.2053223 1.0
273.1862488 0.02505613126676079
275.1659241 0.004949816190504485
281.1895447 0.08986698284531071
287.1997681 0.08378381996264306
289.1821594 0.019908975285488312
289.2157288 0.36159172191847594
289.2537231 0.0068927778158732085
299.2002258 0.16008882549502085
305.210907  0.07463429825509875
317.210907  0.267020758421115
335.1751099 0.006677588528408233
335.2211609 0.19964484310881286
335.2564392 0.004767389033766677


