PRECURSORMZ: 489.124342684
COMPOUNDNAME: casmi2022challengepriority226
FORMULA: C27H22Cl2N4O
SMILES: CN1C=NC=C1C(C2=CC=C(C=C2)Cl)(C3=CC4=C(C=C3)N(C(=O)C=C4C5=CC(=CC=C5)Cl)C)N
INCHIKEY: PLHJCIYEEKOWNM-UHFFFAOYSA-N
PRECURSORTYPE: [M+H]+
PRECURSORINTENSITY: 141394178.9336
IONMODE: positive
CHARGE: 1
PARENTMASS: 488.117066684
NUM PEAKS: 33
56.04976273 0.011106816609144084
67.51428223 0.0007342782586719606
67.51773834 0.0006312921188122361
68.03712463 0.0007868220854183353
69.42343903 0.0006348605734146467
79.81226349 0.0005617601839187996
82.85372925 0.000618507688574784
83.04521179 0.009056665819740429
83.04815674 0.003538604116927656
83.06033325 1.0
83.06964111 0.008799262899340656
83.07209015 0.012946142228774953
83.07836151 0.002737995805383213
83.26828766 0.0006604293688251948
101.7628326 0.0036819684803858013
101.77108   0.00216604836512366
104.3592224 0.0005921752328183795
137.9974823 0.0007142919199380872
138.0104065 0.08224180398153716
150.9302979 0.0006870092643273003
207.1040802 0.0011433310328103912
234.0911255 0.0007440531371246646
235.0980225 0.0012700294217478133
238.0432739 0.0006824838431774878
242.0719452 0.008358080760651915
270.0329285 0.0009508124352937583
270.0679016 0.0858312910273967
295.0629272 0.010616160575216044
381.7698669 0.000614286768610846
406.9100952 0.0009823569363483797
407.0707397 0.31547160677286923
407.1954651 0.002427546956602154
432.4136963 0.0006210250935710803


