PRECURSORMZ: 165.05571818
COMPOUNDNAME: casmi2022challengepriority86
FORMULA: C9H10O3
SMILES: CC1=CC(=CC(=C1C(=O)C)O)O
INCHIKEY: GQXZUABNLSWQJA-UHFFFAOYSA-N
PRECURSORTYPE: [M-H]-
PRECURSORINTENSITY: 43364308.15332
IONMODE: negative
CHARGE: -1
PARENTMASS: 166.06299418
NUM PEAKS: 42
59.01289368 0.0012293083513479762
62.9510231  0.0010627216701558186
78.95802307 0.001307990751696355
79.05397797 0.12523633732557019
81.03325653 0.013882882496017272
84.77605438 0.0012846255289305983
96.95863342 0.0017266902668223076
105.0104446 0.0014096974099962103
105.0332184 0.2947807989814855
105.0538864 0.0016511787377692998
106.0364761 0.0018042717364354715
108.9363708 0.0014779193954567952
119.0494995 0.0018778141936858876
121.0283737 0.005670080873996342
121.0645294 0.09610336187929726
121.074646  0.0024581714188848733
122.0361099 0.00289186059965956
123.0229263 0.006690386825685902
123.0276566 0.005642296300735694
123.0360489 0.013656007755864933
123.0437775 0.793418498420573
123.066124  0.0068263339621633745
123.0699615 0.006722892543893148
124.0472794 0.008202087208641995
136.931076  0.011439378449849519
139.9512634 0.001348708749524738
147.0439301 0.034884051700085635
148.9832764 0.001725204837372383
148.9963226 0.004554133074163705
149.0231476 0.684426088544133
149.0527649 0.005242429002942507
149.058075  0.00557600218716264
150.0280914 0.007081365089588148
164.8352203 0.005512089550453284
165.0069427 0.002778688898001201
165.0218658 0.007176409843395705
165.0290375 0.006938435074895877
165.0545349 1.0
165.089325  0.008707557803992278
165.0948639 0.008768568586585632
166.0589142 0.017141294883828807
167.0336304 0.02832182015304943


