PRECURSORMZ: 212.08183790799998
COMPOUNDNAME: casmi2022challengepriority141
FORMULA: C12H9N3O
SMILES: C1=CC=C2C(=C1)C(=CC3=CN=CN3)C(=O)N2
INCHIKEY: VEEGZPWAAPPXRB-YHYXMXQVSA-N
PRECURSORTYPE: [M+H]+
PRECURSORINTENSITY: 120485357.8496
IONMODE: positive
CHARGE: 1
PARENTMASS: 211.074561908
NUM PEAKS: 69
50.45493317 0.0008680354074193391
50.98846817 0.0008380644989437354
53.01817703 0.008923536432350257
53.02145004 0.007005005719778319
60.67930984 0.0008684996452101328
61.75577545 0.0008198484353357829
67.81321716 0.0009711341948864845
69.04466248 0.007890064303725308
70.06515503 0.0011863247961131926
77.03891754 0.001483034406720746
81.04485321 0.001785210994871899
87.55255127 0.0011491006710195443
89.69487762 0.000931586520021915
91.05406952 0.0017789669712912572
93.04454041 0.008870169378192795
95.02394104 0.0051370261688384045
95.04883575 0.0019283076425125455
103.0538406 0.0009972776569822938
105.0449371 0.002198676044499527
113.0339966 0.0017559089845329274
115.0541    0.01116038576277832
116.0493317 0.01235640800799471
117.0569229 0.005006012969301271
118.0647812 0.002193296079923617
128.0502472 0.001429861051973271
130.0350494 0.0010448667802775125
130.0649872 0.23679064906252562
140.0492859 0.20027565852061485
142.0648193 0.009508672783496324
143.0600586 0.004568473095327778
143.0730286 0.009361653694698498
144.0439453 0.005916756792015513
146.0604095 0.001451199689470819
155.0601807 0.003755228764367869
156.0450287 0.0012773575605543343
156.0679321 0.04821991559783505
157.035675  0.002855169099823248
157.0758209 0.5873235126993497
157.1070251 0.0064218344676958364
158.0598145 0.17743295128761707
158.0913239 0.001167497393334315
160.0754242 0.005944248842690656
167.0163879 0.0013081336200307042
167.0601501 0.24547946273079993
167.0939789 0.00124287299490465
168.0683899 0.0020277922440646344
169.0753021 0.013920847205523727
170.0840759 0.0017790362219218731
171.0547791 0.005540035160181997
183.07901   0.02282308502184478
184.0350647 0.002289075323058329
184.0643158 0.04513184111331012
184.0866852 0.9216937899862134
184.1261292 0.010411425802924548
185.0706329 0.2988735480175311
185.1098633 0.0014675861199403366
186.0546265 0.0015264346538026792
193.0630493 0.003592418058552779
194.0158234 0.003724590306793892
194.0710297 0.9732164318414357
194.1136017 0.010028734227116627
195.0551758 0.008294639078807894
196.0486298 0.002727750862405983
208.0855408 0.0010345033559539109
212.0185242 0.003984188886681822
212.081543  1.0
212.1177521 0.004791550511474725
212.1304169 0.010666654847892375
212.1569519 0.0016893002205069587


