PRECURSORMZ: 542.2595919719997
COMPOUNDNAME: casmi2022challengepriority149
FORMULA: C26H36O11
SMILES: COC1=C(C=CC(=C1)CC(CO)C(CC2=CC(=C(C=C2)OC3C(C(C(C(O3)CO)O)O)O)OC)CO)O
INCHIKEY: PCWPSOCJBMEHGK-BZKLREMRSA-N
PRECURSORTYPE: [M+NH4]+
PRECURSORINTENSITY: 3058414.875
IONMODE: positive
CHARGE: 1
PARENTMASS: 524.2257689719997
NUM PEAKS: 36
53.03873825 0.012816809122503691
56.1579361  0.011168908753309585
66.04675293 0.0162795180581731
69.03360748 0.013751147935262822
71.79606628 0.013831697178965067
79.05423737 0.014872278798614864
85.02849579 0.06198700888775119
86.44770813 0.013937498727092563
91.05406189 0.018430563435908532
94.04116821 0.05397160616031871
103.0542984 0.12437647415916758
105.0699997 0.07974145388009785
107.0496979 0.013285156204750516
122.0360718 0.15604629460749897
128.0621338 0.01871762532960243
129.0692749 0.015939671915852518
131.049118  0.12316593456987619
133.0648346 0.07071762937072838
135.0805054 0.06138461141556152
137.0471497 0.020301558557181663
137.0504608 0.01208767219644128
137.0596161 1.0
143.0857239 0.017136474516528034
145.0650024 0.019329394522754707
151.0749054 0.018203771810817317
157.0644989 0.015171064216006704
163.0753784 0.04797405018022096
171.0805969 0.01622853196857984
174.0674133 0.01893514697167708
188.0836639 0.01811642978476668
261.2018433 0.013187513803236581
291.2564392 0.013430305494727547
313.4586182 0.013099729335424012
322.4798584 0.014602972542376552
432.8197632 0.01356197332395135
504.6843872 0.01207744989893577


