PRECURSORMZ: 723.3961126759999
COMPOUNDNAME: casmi2022challengepriority12
FORMULA: C37H58O11
SMILES: CC1CC(OC2(C1C3(CCC45CC46CCC(C(C6CC=C5C3(C2O)C)(C)C)OC7C(C(C(CO7)O)O)O)C)O)C(C(C)(C)O)OC(=O)C
INCHIKEY: FTUCJLKRCLNNPB-OQDXJULVSA-N
PRECURSORTYPE: [M+FA-H]-
PRECURSORINTENSITY: 11847593.12891
IONMODE: negative
CHARGE: -1
PARENTMASS: 678.3979116759999
NUM PEAKS: 15
54.3062706  0.015686800705160906
55.10415268 0.013452765883870416
57.03316879 0.021010976799007455
59.01248932 1.0
68.93002319 0.012651925264296971
71.01251984 0.032928804499853956
79.37639618 0.01302585807601661
80.42783356 0.013051570054802553
82.94822693 0.013233598142861675
162.176178  0.01385342472633319
183.1499786 0.015059526601459306
195.7918396 0.016369359077863424
227.216217  0.015542103557124527
304.2792969 0.03154047287860884
606.852478  0.016646044306843244


