PRECURSORMZ: 628.792576832
COMPOUNDNAME: casmi2022challengepriority78
FORMULA: C12H11I3N2O4
SMILES: CC(=O)NC1=C(C(=C(C(=C1I)C(=O)O)I)N(C)C(=O)C)I
INCHIKEY: GGGDNPWHMNJRFN-UHFFFAOYSA-N
PRECURSORTYPE: [M+H]+
PRECURSORINTENSITY: 6808793.80957
IONMODE: positive
CHARGE: 1
PARENTMASS: 627.785300832
NUM PEAKS: 68
56.04964066 0.009095091747356416
58.80679703 0.001852701883112696
61.76486969 0.007992331979062347
61.76875687 0.007500071194152295
84.38799286 0.0017869448419197593
106.0648499 0.002176963721833129
129.4165497 0.002139162793050662
133.0760345 0.003559682514241569
134.0596008 0.017671090272724718
149.0711975 0.002054342062892549
159.0547943 0.0028462064378498783
160.0389709 0.009695336034573341
160.0623474 0.004352791075466166
161.0471954 0.002635356227699374
161.0708466 0.02855508227670867
162.0547485 0.10322118854803725
162.0791016 0.010627723860884435
163.0495148 0.008819427761484255
164.0337524 0.006562000956374779
173.0708313 0.011366233124704042
175.0859985 0.0043116587680709926
177.0657654 0.008636565467221665
178.0494537 0.0021397422438535095
187.050705  0.0020949011946104785
188.0338593 0.009990489419636223
188.0576172 0.00406253143267464
194.0678864 0.023991178861981557
195.0523987 0.002095768730725096
201.0653992 0.04751027203833239
202.0726929 0.01746784922283368
203.081131  0.06264517674222131
204.0889435 0.011867689820952184
205.0581818 0.028859325466440353
206.0449219 0.01485745858234553
206.0679779 0.10125034273595111
209.0311279 0.007736956615196337
213.78862   0.001901020492871669
220.0475769 0.003795211081990501
229.0606079 0.017895902922574716
232.0476227 0.011794850444817413
233.055481  0.10575588291884341
233.0765076 0.0019224986790290287
234.063858  0.020622136945420373
236.0789642 0.021225053295212213
245.9399567 0.006731168074241992
246.0605316 0.0024657515624378484
247.0105591 0.009638803998482652
247.0710297 1.0
247.147995  0.0033414718669917986
254.5328979 0.0019326642398892731
287.952179  0.002838130065965975
301.9295044 0.010088000307777796
312.9467163 0.0021385685101327533
314.961853  0.015050750705826128
316.9421692 0.004164137981204014
317.9487    0.02294436240890343
319.9415283 0.009365961537267948
328.9776001 0.050846229210851156
330.9573364 0.010482985236523404
331.9646606 0.09800179920401286
332.0103455 0.003094011718374919
332.9725342 0.06771914290272797
333.9558411 0.003003956535148582
346.9876099 0.0019607053517283054
356.9706726 0.014355948262296782
358.9545593 0.003915905706905022
372.966095  0.021119806888600136
374.982666  0.04094164397885497


