PRECURSORMZ: 435.1427344759999
COMPOUNDNAME: casmi2022challengepriority79
FORMULA: C19H28O9
SMILES: CC1=C(C(=C(C(=C1O)C(=O)CC(C)C)OC2C(C(C(C(O2)CO)O)O)O)C)O
INCHIKEY: XPIZBBYHXMPNEG-SQUCUVIGSA-N
PRECURSORTYPE: [M+Cl]-
PRECURSORINTENSITY: 3881298.6875
IONMODE: negative
CHARGE: -1
PARENTMASS: 400.17333247599987
NUM PEAKS: 16
60.20191574 0.013110608353414762
72.17471313 0.013065346292456754
73.53639984 0.013266349770354883
101.0592041 0.032509162128232905
106.1476288 0.012630774027544851
107.9555511 0.013177020949344016
120.8695755 0.013126554086899328
153.0544739 1.0
177.054718  0.07479741788609913
207.0648499 0.017902696903050852
215.8841095 0.08269516101483289
215.9115601 0.02662747362140061
237.1127319 0.5760400387274138
297.0973511 0.02527325221787454
304.3004761 0.014221691572618204
456.0762329 0.015466774314394414


