PRECURSORMZ: 336.10537194799997
COMPOUNDNAME: casmi2022challengepriority82
FORMULA: C14H19NO7
SMILES: C1C(C=CC(=CC#N)C1OC2C(C(C(C(O2)CO)O)O)O)O
INCHIKEY: UTHVFIKQCUKKQW-BKZLMLJWSA-N
PRECURSORTYPE: [M+Na]+
PRECURSORINTENSITY: 1924643.195313
IONMODE: positive
CHARGE: 1
PARENTMASS: 313.116153948
NUM PEAKS: 17
57.00283051 0.07441774924330977
65.30925751 0.0685651030044624
72.80573273 0.06998121150181391
74.09329987 0.0757938175548748
101.9498215 0.1732373535460911
134.9563751 0.09644918523064235
135.1731873 0.07369456304369167
178.9450989 0.08834153183131406
179.9622345 0.10704644320925881
182.8195801 0.06848589924246411
196.9561005 0.13361106105624074
197.9738312 0.5585049228389888
202.9237518 0.07509065979680996
215.9863739 0.1185597164473604
220.098175  0.07929991354792829
284.1243896 0.0924813831503142
336.104248  1.0


