PRECURSORMZ: 305.247506264
COMPOUNDNAME: casmi2022challengepriority192
FORMULA: C20H32O2
SMILES: CC(=CCCC(=CCCC1=CCC(OC1)C(=CCO)C)C)C
INCHIKEY: SAYWUPNITYCHPG-OTOUPVKASA-N
PRECURSORTYPE: [M+H]+
PRECURSORINTENSITY: 37185611.75781
IONMODE: positive
CHARGE: 1
PARENTMASS: 304.240230264
NUM PEAKS: 125
53.03895187 0.014933029887951916
53.04494858 0.005398233592779529
55.01801682 0.011762250881944407
55.05445862 0.23022314764788232
57.03364563 0.012177380608585937
57.07011032 0.07339689706486327
59.04932404 0.032892370496604845
61.02865219 0.007843548298659842
65.03866577 0.012850368993427256
66.77429962 0.00561329004700644
67.05430603 0.2564828280119595
67.05840302 0.009276632890789881
69.03361511 0.0824163758293063
69.06994629 0.4546248319261098
69.07365417 0.008474054721279722
70.15196228 0.006217587953563695
71.04907227 0.09775908238113133
79.05427551 0.25341104158518063
81.06987    1.0
81.08153534 0.0075704950302227375
83.04908752 0.11392593280182624
83.08547974 0.11740393728156344
85.064888   0.04415442304629006
88.25363159 0.007087453391533493
91.05426025 0.278610775470208
91.0608139  0.008083712394885846
93.06986237 0.6801636182186322
93.07535553 0.011332352156683503
95.04916382 0.12667363160107367
95.085495   0.8389083221225305
95.09112549 0.010702605361271773
97.06468201 0.10666281131410003
97.10124969 0.08691707130899247
97.24394226 0.006238494574738418
99.04417419 0.008976564992376125
99.08031464 0.01074188352859568
101.0596848 0.011919227190236503
105.044426  0.005586962731584474
105.0698853 0.4755992809923934
105.0770645 0.008805958781930804
107.0854645 0.8208786536705098
107.0921326 0.01724237511139179
109.0648422 0.07036233856950773
109.1011124 0.6892593765021748
111.0804672 0.06611270160382138
111.1164932 0.08510078130502649
113.0955811 0.007994744415512843
117.0697479 0.04530127969320085
119.0854568 0.4746567096577926
119.0938187 0.010370509155569802
121.0649567 0.009747902029483755
121.1010742 0.5811509181662962
123.0802155 0.042185009276735505
123.116745  0.2659652234592672
123.1256104 0.006430123795295985
125.0961533 0.04670393580941556
127.0755386 0.009382982765996627
129.0694885 0.03079952384831094
131.0853577 0.18894650099978236
133.101059  0.42393037216515667
135.0801086 0.008837045647339128
135.1166687 0.6369946444670291
137.0962372 0.039794030643066816
137.1323395 0.08961306333788464
139.1113739 0.028030794931650466
142.0775299 0.0076245663003839306
143.0853424 0.08840996259774687
145.1010742 0.2836981262907189
145.1140594 0.010809196278656967
147.1166382 0.4100504858572868
147.1299438 0.01277638144109879
149.0963898 0.023153836743559506
149.1322327 0.21801661746431078
151.1115723 0.03905076400067736
153.1269531 0.0100586577380898
156.0930023 0.00843735226180537
157.1009216 0.14227399158090082
158.108551  0.01123803992786835
159.102356  0.012322117483748413
159.116684  0.2832133753186385
161.1323395 0.3181622763602404
163.1113739 0.034031805799187215
163.1481323 0.08615131749742969
163.9166565 0.005985784577470266
165.127243  0.014303299621146707
168.5944214 0.00686034069623258
170.1085358 0.03930604281887583
171.1165619 0.13413957010989716
173.1322021 0.1857008115942489
175.1123199 0.007903540253415714
175.1478577 0.16272155274754366
175.1637421 0.010383055745303958
177.1277771 0.024002737710231755
177.1633606 0.03733876399433038
179.1417389 0.013619943667864396
183.1172791 0.008229805993167012
184.1237335 0.0070571351063283055
185.132431  0.1306945677478491
187.1481171 0.12290993566713732
189.1637268 0.18086587463347265
191.1422119 0.011649090532158542
191.1781158 0.05129207312713919
199.1105194 0.011055889174459203
199.1483459 0.10619712333487512
201.1636505 0.09030268087827109
203.1795197 0.03675722976675976
205.1592102 0.01041076802021416
213.1636658 0.10750658565798267
215.1789703 0.07013823270320996
216.7977448 0.021192687277266007
217.1585693 0.009806756265157354
217.1950989 0.13142310464705959
225.1639557 0.006478088434039268
227.1064911 0.009272379529378191
227.1786957 0.04504089353558706
229.1954803 0.028468816778325117
231.1723633 0.011059090903280853
242.3441315 0.005940233115279211
243.2101746 0.009510528512992234
245.1166382 0.012290512033310387
245.2264099 0.012101368301958512
257.2270813 0.007099507566531608
269.2257996 0.06161398955691787
287.2381897 0.044139742888930675
305.2462769 0.024097479682816482


