PRECURSORMZ: 535.1821004639999
COMPOUNDNAME: casmi2022challengepriority30
FORMULA: C26H32O12
SMILES: COC1=CC(=CC(=C1O)C2C(C(C(C(O2)CO)O)O)O)CC3COC(=O)C3(CC4=CC(=C(C=C4)O)OC)O
INCHIKEY: LIIDAMUJPFBXAR-FPOXNKGTSA-N
PRECURSORTYPE: [M-H]-
PRECURSORINTENSITY: 80936420.71289
IONMODE: negative
CHARGE: -1
PARENTMASS: 536.1893764639999
NUM PEAKS: 72
52.44001389 0.006741093980947619
55.01753235 0.00876291858213466
55.4033432  0.005725459580640713
55.53883362 0.005932573946545275
59.01270676 0.024820549969310376
60.09493637 0.00554927588228578
71.01249695 0.07012006291490101
72.99184418 0.015194710276833992
93.03312683 0.013075652850951426
95.04890442 0.013872853013786688
99.00733185 0.21013347528747822
101.0229645 0.010523241274993551
107.0489807 0.027389053261363705
108.0199509 0.049589511639350325
109.0280762 0.010906721127290075
116.3731842 0.005911446665248099
121.0279694 0.11079111344580109
122.0281906 0.01251707417619075
122.0358963 1.0
123.0438385 0.16120386665861386
124.0152283 0.0452881447922914
130.0414581 0.011236039849225221
132.020401  0.03435576485052444
134.0364075 0.02941802721661725
135.0437469 0.1139191961612453
136.015152  0.12420457455659227
136.0515289 0.3135069930675626
137.0232697 0.04132468569470214
137.059433  0.09325034259546673
139.0393066 0.02598640749266937
143.0488739 0.009122498245471115
146.0366211 0.0405744285432705
147.0439148 0.08281563611796613
148.0515747 0.013390231745291565
149.0230865 0.20922921989361867
149.0592804 0.04905904171120291
150.0309906 0.2390964281584212
151.0387726 0.03593370256861156
158.0356293 0.00945874685905386
159.0439758 0.028063985058296242
160.0515289 0.02681769016916046
161.0595551 0.12386872097536356
162.0305176 0.06637870271140844
162.0680847 0.044111009826766315
163.0389099 0.22219332731245503
163.0744019 0.010387278454151199
164.030777  0.011659638163238839
164.0466461 0.38879435423271025
165.0542297 0.10075916439947358
173.0594177 0.022771054814806492
174.0309448 0.014240173116637897
175.0390015 0.050560875714745206
176.0467529 0.1765104866751783
177.0543365 0.12167868501395898
177.0703278 0.008901496663468953
178.0625153 0.09952656981760859
179.070343  0.01134747262396525
187.0390625 0.00876047084462248
188.046814  0.009999718063945848
189.0546722 0.07257626289795267
190.0631561 0.024958331402064046
191.0345001 0.01009792310715712
191.0704956 0.024777459254899922
192.0417023 0.2029208282593622
196.0372467 0.008725161536044976
201.0548096 0.007191022664439972
205.0502014 0.0353393515195695
206.058136  0.007786395676812736
217.0490265 0.009799002124864401
229.0494385 0.008290658865977402
239.8581848 0.0065590791661223995
473.0166321 0.0067846521503103375


