PRECURSORMZ: 522.5972274000001
COMPOUNDNAME: casmi2022challengepriority34
FORMULA: C36H75N
SMILES: CCCCCCCCCCCCN(CCCCCCCCCCCC)CCCCCCCCCCCC
INCHIKEY: SWZDQOUHBYYPJD-UHFFFAOYSA-N
PRECURSORTYPE: [M+H]+
PRECURSORINTENSITY: 467347.1640625
IONMODE: positive
CHARGE: 1
PARENTMASS: 521.5899514
NUM PEAKS: 12
58.06404877 0.024994080449224593
88.01996613 0.01472439490563932
105.8993225 0.01734221544484303
106.4796829 0.01797083399816808
125.236618  0.0177874068387506
190.987381  0.019771601883198344
215.1547546 0.11806182700470362
304.2652893 0.0279628053270118
472.1381836 0.01669562631526497
494.6815796 0.015340054597203856
512.0700073 0.014877174237666995
522.5966187 1.0


