PRECURSORMZ: 717.382047296
COMPOUNDNAME: casmi2022challengepriority26
FORMULA: C37H58O12
SMILES: CC1CC(OC(=O)C1C2(CCC34CC35CCC(C(C5CCC4C2(C)C(=O)O)(C)C)OC6C(C(C(CO6)O)O)O)C)C(C(C)(C)O)OC(=O)C
INCHIKEY: CNWZWVFEXLYSBT-KCPUTACTSA-N
PRECURSORTYPE: [M+Na]+
PRECURSORINTENSITY: 4458201.220703
IONMODE: positive
CHARGE: 1
PARENTMASS: 694.392829296
NUM PEAKS: 22
53.15376663 0.0021566811815460973
79.70536804 0.031132963574814668
79.71123505 0.013941142870032269
149.748703  0.0029372977992217298
153.5253906 0.002339592969299363
179.3361664 0.010495621588828453
179.3551483 0.006627214491412805
181.0834351 0.050398080972748616
207.0992889 0.004632418433916142
251.0891266 0.024741707459194438
266.1125183 0.015689103499702785
267.1199341 0.16603885653544528
267.1530151 0.0033504764693643926
277.7222595 0.0026879832546370702
304.2675171 0.003610824101940536
473.2477112 0.003417728330959936
585.3396606 0.002489083964437333
639.3538208 0.00426732375365373
645.3964233 0.002829977976830291
657.354126  0.01702154437428117
699.3728027 0.0038226721943288608
717.3804321 1.0


