PRECURSORMZ: 229.14343512
COMPOUNDNAME: casmi2022challengepriority218
FORMULA: C12H20O4
SMILES: CCCCCCC=C(C(C)C(=O)O)C(=O)O
INCHIKEY: GFMGGFIBSURRGW-VIFPVBQESA-N
PRECURSORTYPE: [M+H]+
PRECURSORINTENSITY: 23055597.53516
IONMODE: positive
CHARGE: 1
PARENTMASS: 228.13615912
NUM PEAKS: 59
51.43729782 0.001225379938153083
52.65282822 0.0014637547625385174
53.03905869 0.0013782120111710276
55.05474091 0.002836351223158383
57.03381348 0.007188438835307989
57.07017136 0.009736409096503857
57.33136749 0.0011633322344868397
59.04929733 0.010631937388634341
67.05433655 0.044880350777962395
69.03367615 0.0057166669168716485
69.0700531  0.0087948098123052
69.13400269 0.0011970649100806066
79.05433655 0.005555629263439554
81.03400421 0.004765787438806884
81.05521393 0.0014530201897221375
81.06408691 0.001778371833324893
81.06571198 0.0031406408805724107
81.06988525 0.21605148594560844
81.08154297 0.0019180120028529234
82.43042755 0.00127268657424378
83.04927063 0.0017622129467799019
83.08551025 0.002350432622856068
91.0544281  0.004733628821416679
93.06982422 0.0352958278821534
95.04920197 0.008879336487853743
95.08547974 0.04733432834921455
97.10093689 0.001731210187243375
100.0323792 0.00113383374629601
105.0699234 0.012546676283692878
106.3540421 0.0013276791390561462
107.077095  0.002765045303278302
107.0854645 0.11686092083681487
109.0649033 0.02662900341747118
109.101181  0.04772206163180649
113.0598145 0.012896262194893024
115.0753479 0.005189897381471101
121.1008224 0.0015435278073105576
123.0806808 0.0025137434529844665
123.0890274 0.0071863789772459415
123.1167297 1.0
123.1385345 0.012875927762737629
127.0747528 0.009806262616463975
127.6687088 0.0012699621786394666
133.1010742 0.06372994191546907
141.0908356 0.003054879498436694
141.1274872 0.0020596805742772286
142.0046692 0.0012577365627325946
151.0747681 0.0032189488179668047
151.1116486 0.6532290681623432
151.1408997 0.007563093019137028
169.121933  0.031850875262355256
178.8761749 0.0013319781136614587
181.3845673 0.0011605174284457411
183.1378174 0.10208815877860576
183.1564789 0.002723570869476642
197.1178131 0.0025058015002379567
211.1329498 0.00757821781027142
215.8025665 0.006370010230495051
215.8278503 0.002151589241157356


