PRECURSORMZ: 192.13829016399998
COMPOUNDNAME: casmi2022challengepriority25
FORMULA: C12H17NO
SMILES: CC(C)NC(=O)CCC1=CC=CC=C1
INCHIKEY: ZYRLCOGVOHEKBK-UHFFFAOYSA-N
PRECURSORTYPE: [M+H]+
PRECURSORINTENSITY: 88772233.00195
IONMODE: positive
CHARGE: 1
PARENTMASS: 191.131014164
NUM PEAKS: 33
51.02354431 0.0007726615086167193
53.00257492 0.0006667913884774498
53.03896713 0.006999845073025623
53.52960968 0.0005022795008801792
55.05438232 0.0006536399227878746
58.29654694 0.0004780475830539295
70.01383972 0.0005252559919061301
70.06520081 0.0031113121446138758
71.04919434 0.005017362922146875
72.08084106 0.0021882923708114953
75.61353302 0.0005106760184266495
77.0384903  0.006841855520946559
77.04298401 0.0005341186240468909
79.05425262 0.08325845619941358
79.06513977 0.0005488447005563262
88.07576752 0.010433260815165447
95.04910278 0.010523382427226268
103.054245  0.059615351045075975
104.769104  0.0005659162044659178
104.7765045 0.0004446583443926858
105.0443039 0.005326626665968122
105.0484772 0.0052467043777452245
105.052948  0.004287821627064143
105.0698776 1.0
105.0827103 0.006579625780916268
105.0864944 0.009383706300657392
105.0932312 0.0012371823344257949
105.0955963 0.0024785452595438872
105.3623352 0.0005160701621536515
114.0923691 0.0005262782993434257
120.0807877 0.0018569345055802098
122.0963974 0.014694687405117026
159.0877838 0.000550555773509517


