PRECURSORMZ: 313.04843988
COMPOUNDNAME: casmi2022challengepriority115
FORMULA: C14H15ClO6
SMILES: CC(CC(CC1=CC2=C(C(=CC(=C2Cl)O)O)C(=O)O1)O)O
INCHIKEY: YDFWTYLPMZZSLA-UHFFFAOYSA-N
PRECURSORTYPE: [M-H]-
PRECURSORINTENSITY: 91756256.55859
IONMODE: negative
CHARGE: -1
PARENTMASS: 314.05571588
NUM PEAKS: 32
55.99565506 0.0011099490939968225
55.99879837 0.0008000551071552859
56.24744415 0.0072023414858886185
56.25096893 0.003730001824330014
78.2598114  0.011241584887747581
78.26558685 0.00552816647707669
91.33102417 0.0007626857712412188
96.93728638 0.0008851112338302044
161.0233459 0.01767475609774273
171.9546509 0.0008161641228200257
178.9889679 0.0009493832663061663
181.004715  0.004569185771287793
190.0263367 0.001223960332163129
191.0338745 0.0017331621256048188
216.9060211 0.004581345545616727
223.9674683 0.0011689029535609506
223.9873352 0.07079707805393869
224.9420929 0.007035239120901149
224.9951782 0.6569962986174401
225.0634918 0.005394019769831683
233.0454254 0.0010974298213963683
259.059967  0.0019221238775969107
277.0714417 0.005038225931512127
280.3583984 0.0008421576671742065
295.0389404 0.001040898645426814
312.9613037 0.011249744770781805
312.979248  0.006298132597726709
313.0479736 1.0
313.1158752 0.005937252222729783
313.1342773 0.004324495237646347
313.1600952 0.0074274415469200725
314.5865784 0.0009983498418044594


