PRECURSORMZ: 545.2145880479999
COMPOUNDNAME: casmi2022challengepriority27
FORMULA: C30H34O8
SMILES: CC1C(C(OC1C2=CC3=C(C=C2)OCO3)C4=CC(=C(C=C4)OC(C)C(C5=CC(=C(C=C5)OC)O)O)OC)C
INCHIKEY: UDWINLZYCCTMBM-KVGJNFRLSA-N
PRECURSORTYPE: [M+Na]+
PRECURSORINTENSITY: 9246982.0
IONMODE: positive
CHARGE: 1
PARENTMASS: 522.2253700479998
NUM PEAKS: 23
50.61853027 0.014276342167765235
70.54668427 0.015263189465848793
83.25724792 0.013820127317842436
137.0593414 0.02544837256291572
159.0411987 0.08008647910436766
173.0569611 0.025256753780976908
174.0287323 0.5295900556124359
175.0369263 0.021638064092618235
186.065155  0.022305971066292007
187.0716095 0.03027927362739217
199.0725403 0.022843282393322898
214.0959015 0.061119062143401605
214.6576691 0.01719695467319643
214.9896851 0.05326436584120011
215.0168457 0.08246482361205702
215.1043243 0.06327459138240278
221.1885986 0.018992445505281754
243.0994568 0.10012304523941612
351.1210327 0.1025697260271913
366.1432495 0.8287217032830732
366.196106  0.022444412817283606
501.9587708 0.016811325398243676
545.2141724 1.0


