PRECURSORMZ: 98.096425352
COMPOUNDNAME: casmi2022challengepriority140
FORMULA: C6H11N
SMILES: C=CCNCC=C
INCHIKEY: DYUWTXWIYMHBQS-UHFFFAOYSA-N
PRECURSORTYPE: [M+H]+
PRECURSORINTENSITY: 75213887.85742
IONMODE: positive
CHARGE: 1
PARENTMASS: 97.08914935199999
NUM PEAKS: 26
51.6581192  0.001138034841482096
53.00247955 0.0074770629699617355
53.03886032 0.0024465143390944746
55.05440903 0.012844404028327629
55.13380051 0.0014185367574495846
56.0414505  0.009699075149119371
56.04298019 0.0055339129937299145
56.04969025 1.0
56.05464554 0.0027834922910736316
56.05623627 0.013149907217809691
56.0594635  0.0035553483946516827
56.96503067 0.006420543529442798
68.19195557 0.0013444383621402081
70.06529236 0.002499269883067992
72.08467102 0.00115281445602543
72.93703461 0.0016571037008995568
77.99873352 0.01208444533290605
79.05416107 0.0334861153281468
81.06990051 0.019712563047411764
86.50551605 0.0018299842907187223
87.00393677 0.03358704722249037
98.09635162 0.2537817573187473
113.9634628 0.0185039738214687
123.1042938 0.0013766338475084661
130.9891357 0.0013801464808782609
131.9741211 0.003022411648824864


