PRECURSORMZ: 485.219426136
COMPOUNDNAME: casmi2022challengepriority108
FORMULA: C27H28N4O2
SMILES: CC(C)(C=C)N1C=C(C2=CC=CC=C21)CC3C(=O)NC(C(=O)N3)CC4=CNC5=CC=CC=C54
INCHIKEY: XMXNEUOHSHGXTJ-GOTSBHOMSA-N
PRECURSORTYPE: [M+FA-H]-
PRECURSORINTENSITY: 5582586.457031
IONMODE: negative
CHARGE: -1
PARENTMASS: 440.221225136
NUM PEAKS: 16
67.81636047 0.02800202681369092
93.17331696 0.023659616787803928
106.9812317 0.025406457627089395
107.9875259 0.02355933263903317
110.0108566 0.3811576403262159
111.0183487 0.13651150073447957
112.0261993 0.04608503175342058
113.0338516 0.046183375419436956
125.0346298 0.02776273789496723
145.1729584 0.026986015155380343
154.9452667 0.0319232767453864
167.9714966 0.025298422961903433
221.3274841 0.020944552673158374
242.0924377 0.08518744862514833
310.1558228 1.0
509.1618652 0.029070408677174562


