PRECURSORMZ: 955.4544187040003
COMPOUNDNAME: casmi2022challengepriority125
FORMULA: C47H72O20
SMILES: CC1C(C(C(C(O1)OC2C(C(OC(C2O)OC3C(CC4(C(C3(C)CO)CCC5(C4CC=C6C5(CCC7(C6CC(=C)CC7)C(=O)OC8C(C(C(C(O8)CO)O)O)O)C)C)C)O)C(=O)O)O)O)O)O
INCHIKEY: CDJVLCFAYOIREA-OFCFZGJQSA-N
PRECURSORTYPE: [M-H]-
PRECURSORINTENSITY: 7644143.222656
IONMODE: negative
CHARGE: -1
PARENTMASS: 956.4616947040004
NUM PEAKS: 25
68.99678802 0.054893962512750305
71.0125351  0.4440239793879863
72.99150085 0.12460438558847113
73.02787018 0.27158188764786384
75.00753021 0.3872663760771734
83.01243591 0.07253847077142138
85.02812958 1.0
87.00736237 0.06960798781299962
89.02262878 0.10897936332291443
94.81771851 0.0489328906529611
95.01246643 0.4215842443714043
99.00736237 0.500737654468156
101.0227509 0.12209270747525303
111.0070724 0.2905731880495482
113.0230255 0.8001253996153608
139.0021667 0.24098572428417264
221.2767792 0.06590364316574907
370.730896  0.05603473317230883
371.6006165 0.05577867241926441
423.2930908 0.36642578759782457
439.2832031 0.12669329216192116
453.2993774 0.08797506476879172
471.3115845 0.884599250123454
567.3300781 0.3297799423096
585.3423462 0.07898154055181382


