PRECURSORMZ: 251.164170564
COMPOUNDNAME: casmi2022challengepriority227
FORMULA: C15H22O3
SMILES: CC1CC=C2C(=C1C=O)OC(C2(C)C)C(C)CO
INCHIKEY: BUOMUXLXLTWQRD-UHFFFAOYSA-N
PRECURSORTYPE: [M+H]+
PRECURSORINTENSITY: 129313222.3555
IONMODE: positive
CHARGE: 1
PARENTMASS: 250.156894564
NUM PEAKS: 122
50.6120491  0.005680357828042695
55.05446625 0.11684155461723582
55.28643036 0.00617516335987482
55.28894043 0.006171128233824325
57.03360748 0.00855285490473356
57.07012939 0.09958975423558167
60.58743668 0.004698510277775381
67.05435181 0.0745673644415158
69.03356934 0.14614761348924218
69.06999207 0.0899370460889298
71.01266479 0.007040868692120452
71.04909515 0.04638618235329205
79.05408478 0.027737367761690085
81.06985474 0.1016574346208428
83.04911804 0.06284141371443595
83.08556366 0.23234646811390283
85.06458282 0.0113511534730107
88.0753479  0.005081104455278697
91.05413818 0.042428115977677046
93.06994629 0.07429384453105063
95.04896545 0.02786547336520494
95.08553314 0.1720285122087373
97.02844238 0.8446922298704941
97.03404999 0.010484995953191956
97.06468201 0.03352827191453283
97.10113525 0.020830089103509437
99.04403687 0.1434160364934565
105.0699387 0.0883721291607524
107.0855331 0.2767549052939269
109.0647812 0.1875525758779273
109.1011429 0.15651386786591096
111.0440445 0.2473031233601432
111.0804596 0.032987941750738305
113.0595169 0.025353022435102686
115.0389481 0.027485995249710213
117.0697556 0.024957892293191963
119.0854568 0.16455142882148707
121.064682  0.08670269641949838
121.1011124 0.32300602814767526
121.1090088 0.005025503240874995
123.0442047 0.042403000846227855
123.0803604 0.14213157954693004
123.116745  0.3431672206557753
125.0590439 0.008897335430174921
125.0960159 0.0228476544328972
129.069809  0.009625119520376013
131.0855103 0.08870347378120369
133.0650482 0.008738146971316068
133.1010437 0.1421982890226839
135.080368  0.13109168665370302
135.1167145 0.1846209165376901
137.0597076 0.06252420269181122
137.0960693 0.11888457148258574
137.1322479 0.04272052062367959
139.0752716 0.03033823777933648
143.0851898 0.04147644604355482
144.0929718 0.005472024932496057
145.0645905 0.010097470627001238
145.1010742 0.4143420838322258
147.0805664 0.08375719380313763
147.1166687 0.08363937849109544
149.0592041 0.02212454371566508
149.095993  0.08991740559530843
149.1321716 0.019808034589535988
151.0752869 0.09891592217122146
151.1108704 0.03885703460730552
153.0909119 0.030644358973735086
155.0853882 0.007795748322530416
155.1955261 0.0050575716923178336
156.0931549 0.019973840539910626
157.1011047 0.0756064488579242
158.108429  0.044293243979870736
159.0802002 0.0322673494590726
159.1167297 0.16427091354046414
161.0958099 0.04551612968395819
161.1320953 0.04162260228374609
163.075882  0.061873223092929266
163.1120148 0.07442931416760325
163.1319275 0.007042510392226648
163.1479034 0.3847509106147587
165.0909424 1.0
165.1268311 0.029179745889800445
169.1009979 0.005876662534144597
170.1086426 0.029828020427735483
171.1165771 0.06405668193003067
172.0883179 0.0063752209348159755
172.1244202 0.1695601141408531
173.0960846 0.09844251346410676
173.1322937 0.10998532649597151
175.1116943 0.028372439574560548
175.1480408 0.04752123882980335
177.0910339 0.10038883016095583
177.1272125 0.007528044062687073
177.1636047 0.019752850424562773
179.1065063 0.22441528471692732
182.1092377 0.026141589175656687
185.1325836 0.04667800635588862
186.1038208 0.01219477534666992
187.1284943 0.01106317508090851
187.147995  0.44164942985241484
189.1267395 0.005958441664803078
190.0993652 0.007965454606736304
190.1355286 0.006379094771031476
191.1066895 0.15556559423488564
191.141098  0.04036247245261784
192.1151123 0.00649865662157261
193.1222534 0.09824465231109716
197.1333466 0.03681709376952298
200.1194    0.05084444076519289
203.1077423 0.006301307563789116
203.1429749 0.05343050207184627
204.1137695 0.0072577804787834375
205.1235962 0.009210605796509666
205.1587372 0.12749115375946143
215.1431732 0.1123639736831026
218.1299591 0.007846947476509011
219.9970856 0.005719741925572797
220.0208893 0.005254702432788959
221.1534576 0.9521557944046031
233.0976562 0.006232374592452845
233.1534729 0.27930577315858435
251.1636658 0.12286824607571693


