PRECURSORMZ: 1550.7205787079997
COMPOUNDNAME: casmi2022challengepriority201
FORMULA: C35H44I6N6O15
SMILES: CC(=O)N(CC(CN(C1=C(C(=C(C(=C1I)C(=O)NCC(CO)O)I)C(=O)NCC(CO)O)I)C(=O)C)O)C2=C(C(=C(C(=C2I)C(=O)NCC(CO)O)I)C(=O)NCC(CO)O)I
INCHIKEY: NBQNWMBBSKPBAY-UHFFFAOYSA-N
PRECURSORTYPE: [M+H]+
PRECURSORINTENSITY: 9253900.361328
IONMODE: positive
CHARGE: 1
PARENTMASS: 1549.7133027079997
NUM PEAKS: 156
131.2140503 0.001288303785762517
131.2231293 0.0014531312071374407
133.2028046 0.0007284641490488177
137.9582977 0.0007956605121995411
163.1884003 0.008844580111921168
163.2059784 0.007575276023339173
168.0675659 0.004229081745072516
169.0756989 0.00119459509700906
176.4703979 0.0008310903817153374
183.0546112 0.0015351871800940208
184.0625458 0.001405405446850264
185.0700226 0.0038539929858374448
196.0609589 0.0009915402217687342
197.0703735 0.0018262308411728036
213.0646515 0.003355711453573439
215.0809784 0.001320865040462553
216.0887604 0.004594122460178408
225.0638428 0.001152973874600479
243.0758514 0.006504027009049726
243.9239349 0.0010316823231675445
244.0840149 0.0016590282081818829
245.091507  0.004549332081530862
247.0713959 0.0013974128411656972
247.9210968 0.0012077042548673828
253.9460297 0.003709710968045096
268.9570312 0.004631229211133371
269.9407654 0.0019466188633044613
271.069458  0.0034039595553984428
271.9535828 0.0012240225746295173
279.9248047 0.005192489638601749
281.9405823 0.0036685753472780547
282.9724121 0.0032636752011852774
283.9202881 0.0010829557059833384
296.9525757 0.0033996178975310627
297.934845  0.0217695522521576
300.9448853 0.0009885349889682629
301.9300232 0.005538967725219244
304.2237244 0.0012643289623299953
304.2655945 0.004533798997675539
308.9241333 0.00800604831368136
309.9628296 0.001103874042192174
310.9668274 0.007732499556203825
312.9486694 0.0014713647187277435
313.959137  0.0008645954435288759
314.9639893 0.0009497701347433464
315.9459839 0.0036854092956093115
319.940094  0.001938779023015813
322.9666443 0.0017601612588906703
324.9462585 0.0034601148086307234
324.9849548 0.0016117387908604834
325.9294739 0.004483486204395008
326.9342346 0.0014830299533040961
338.9636841 0.008710953571209941
342.9942017 0.019304029072434874
350.9595642 0.0017572204343034425
352.9778442 0.005733228702172776
356.972168  0.004433170871072265
366.9561157 0.0011831335193886675
368.972229  0.0014287956069949615
369.9788818 0.0016269866642616676
370.9881897 0.05662068185856915
374.9830322 0.04193826249454602
378.956665  0.0017126100357898043
380.9718018 0.003576682788706481
381.6204224 0.0010475264714780953
388.9979858 0.005854008072236734
396.833252  0.005823349037006423
396.9677429 0.0059136976127760164
398.9830017 0.03610859564683095
401.0014954 0.0014890678150746158
402.9785156 0.0012085897317257925
403.9860229 0.004130632974687501
406.8262634 0.001980879315528816
407.8375549 0.012885383042313585
408.8475037 0.004345996622341856
409.8661804 0.0009736423586136449
411.8326111 0.0041445364400319665
416.9925842 0.0042258736717582235
420.8691101 0.005124649102602796
422.8483276 0.045392002885813076
422.9137268 0.0010088135974027405
423.8450012 0.005323389988292699
428.0084534 0.0015767810970488182
431.0101013 0.0013740002742200544
433.0250244 0.001672672044925921
435.8313293 0.00829950374484084
436.862854  0.005095510826931382
437.8635559 0.0012060881530097276
438.8854675 0.001222545721514579
440.8328552 0.007896605152011453
442.855072  0.001091383021749403
443.8236084 0.0009573498021368077
448.8614807 0.0017692330196523443
450.836853  0.001255040935117092
451.8268738 0.0961662652296867
452.8576965 0.004738325736662171
453.8423462 0.001890041600201745
455.821228  0.008357762878751354
462.8424683 0.0011526917484833133
464.8577271 0.0065001421959174095
466.8736267 0.001954054292586574
468.8535767 0.0037263177640299277
469.8380737 0.025394552449555168
470.8674927 0.0032184914788579775
490.0456543 0.017285596865679643
494.8692932 0.004516064060085218
496.8834229 0.0020979268192879625
497.8954468 0.002057749338729765
498.8659058 0.003394075162560379
500.8812256 0.0062155703809642976
501.8857727 0.006718937077737577
506.8724365 0.004102946514572074
510.8628845 0.012493493718159191
512.8827515 0.001643318228529624
524.8796997 0.21186053755119447
526.9003296 0.0015883039985454819
528.8743896 0.06028461872590414
533.7322998 0.0017873132215519684
533.8809204 0.0041833845713551325
535.7507324 0.009626659109126669
541.723999  0.004670279457244012
542.8901367 0.005601244480183468
550.7584229 0.012889023285667163
551.7449951 0.013489984210052562
553.7245483 0.004560952774652703
563.744873  0.009779158163476211
565.7207642 0.003577100081355665
578.7559204 0.003379096170770539
579.7393799 0.0333568068068626
590.7550659 0.0017791560574183538
596.7662964 0.005693483935948623
601.9297485 0.0010740289997751525
608.7685547 0.0042100092938257665
614.7755737 0.0039333754736496545
615.9423218 0.001395219333283682
622.7869263 0.0012075436879132402
626.6587524 0.00150620647775557
626.776123  0.04425845897340075
634.7809448 0.057253904221957724
638.7723389 0.0010342217303694159
640.7918701 0.00148286131264435
652.4591064 0.004219133488315968
652.7915039 1.0
652.9979858 0.005598647831316023
653.0505981 0.00872449707628659
656.7866211 0.013509530923466687
670.8068848 0.009245264513667669
676.7884521 0.001379446850449839
694.8071289 0.008492460591549879
699.8231201 0.0017598731455311467
725.8444214 0.0016381111419941539
743.8552856 0.0013030340348471265
803.8679199 0.008230553210395059
905.4906006 0.0011128584436448992
1205.923706 0.0010999682737116046
1578.194214 0.0009305355743739688


