PRECURSORMZ: 475.147319352
COMPOUNDNAME: casmi2022challengepriority224
FORMULA: C24H26ClFN4O
SMILES: C1CN(CCC1C2=CN(C3=C2C=C(C=C3)Cl)C4=CC=C(C=C4)F)CCN5CCNC5=O
INCHIKEY: GZKLJWGUPQBVJQ-UHFFFAOYSA-N
PRECURSORTYPE: [M+Cl]-
PRECURSORINTENSITY: 3563380.726562
IONMODE: negative
CHARGE: -1
PARENTMASS: 440.177917352
NUM PEAKS: 27
53.49501801 0.03331197872176968
55.01736832 0.03514844031896406
59.0124588  0.5828846769858393
65.90332031 0.040486037297080245
66.55602264 0.037240654587616995
71.0082016  0.058925086145241126
71.0124054  0.8505908203484561
73.02802277 0.336430559825551
74.71611023 0.03151781596790109
83.01203156 0.0643612929310967
85.02817535 0.3324029505463958
89.02266693 0.19913589259217668
89.23873138 0.044673644360185276
95.01184845 0.07315340451466948
99.00687408 0.06323853262680579
101.0229645 1.0
113.0230179 0.46540495396689224
143.0336304 0.04331041275847097
155.6816559 0.035937113830689475
159.0282288 0.04214441155908807
161.0440979 0.35377285547021703
203.372879  0.03431924419891752
215.4008179 0.13004724008461035
215.4267273 0.1753392335593414
231.1595917 0.03849036176053432
269.1013489 0.14076049724685014
309.6298523 0.03550318393360776


