PRECURSORMZ: 299.05611210399996
COMPOUNDNAME: casmi2022challengepriority74
FORMULA: C16H12O6
SMILES: COC1=C(C=CC(=C1)C2=COC3=CC(=CC(=C3C2=O)O)O)O
INCHIKEY: ZMFBGWWGXBNJAC-UHFFFAOYSA-N
PRECURSORTYPE: [M-H]-
PRECURSORINTENSITY: 47900836.12695
IONMODE: negative
CHARGE: -1
PARENTMASS: 300.06338810399996
NUM PEAKS: 29
55.51487732 0.0007518817502734274
71.00627136 0.012200506234918786
71.01126862 0.0050247208666031945
72.85095215 0.0008717292395739511
74.76223755 0.003676086289945916
74.7673111  0.00143618314506348
128.4981842 0.0008654975853267996
142.7744446 0.0007920870842760879
144.8615112 0.0008800010170260559
148.0171051 0.0031368678323400495
169.2922058 0.0008293167484819687
176.7017975 0.0008433761823016288
200.0469513 0.0007819981806272938
212.0474396 0.003505548329818794
217.411087  0.0016071035079886357
227.0344696 0.0010100921105853165
240.0418854 0.0011466786336252715
255.0306244 0.001412483867107489
256.0385742 0.005762412079636838
262.4190674 0.0008841316658927282
283.0238342 0.003912511596300689
283.9323425 0.003171313170729375
283.9607849 0.005145525360967253
283.9742432 0.007468397936201585
284.032074  1.0
284.0914917 0.004779368265695668
284.1087646 0.009510269757074108
299.0555725 0.27883909094346804
299.1369629 0.0014012396279357768


