PRECURSORMZ: 449.1453177279999
COMPOUNDNAME: casmi2022challengepriority180
FORMULA: C21H24O8
SMILES: COC1=C(C=CC(=C1)C=CC(=O)OC)OC2=C(C=C(C=C2)C(C(CO)O)O)OC
INCHIKEY: IVDMSWPOHFCIHO-YCRPNKLZSA-N
PRECURSORTYPE: [M+FA-H]-
PRECURSORINTENSITY: 25261072.62891
IONMODE: negative
CHARGE: -1
PARENTMASS: 404.1471167279999
NUM PEAKS: 47
55.91446686 0.004457863013836126
63.34728622 0.004543400312901651
67.93217468 0.004082447900133352
76.81513214 0.004983224005891731
93.03321075 0.016990368816114595
121.0281219 0.22949732006539406
122.035965  0.07569912878135276
133.0280609 0.060342958446178395
133.0644073 0.007659489446923353
136.0153961 0.00948984434440816
137.3764648 0.004870238630352297
147.1437073 0.0044353047157176285
149.0095978 0.006213896210137757
149.0231934 0.3417159556095089
150.0309753 1.0
150.0664673 0.005981441946441898
161.0598145 0.011532283522235063
163.0752411 0.02124087661888588
164.0465698 0.11307618263130599
165.0545044 0.9788417855818481
177.0183868 0.032744775384926934
180.0418396 0.09620726162237023
192.0417633 0.8696404892598563
193.0492554 0.01747338361239346
195.0648651 0.027449491403075975
207.0653229 0.15223749501724304
216.2074432 0.03041092110026333
218.2182617 0.006233189916609638
263.0709229 0.005714857038443479
266.3897705 0.004991039723520135
273.9190063 0.00522706060852395
279.0646362 0.030206488812483553
280.073822  0.009616523598303955
281.0819092 0.017178387235163847
292.073761  0.0295572517120058
293.0814209 0.006440891104590313
296.0690002 0.024280780601958953
297.0764771 0.04251388126600301
297.3813171 0.005370331674445731
304.2884521 0.006587478033955765
307.061676  0.00519879390671979
308.0689392 0.03894901095445468
309.0769653 0.01876717182961541
311.0924683 0.10756855413242894
312.0977783 0.005343732383182934
325.0704651 0.060931610378517465
340.0942993 0.0748199010485684


