PRECURSORMZ: 211.097582992
COMPOUNDNAME: casmi2022challengepriority31
FORMULA: C11H16O4
SMILES: CCCCCC1C(=C(C(=O)O1)C)C(=O)O
INCHIKEY: OIUPBOONLQPLQI-MRVPVSSYSA-N
PRECURSORTYPE: [M-H]-
PRECURSORINTENSITY: 83771877.79687
IONMODE: negative
CHARGE: -1
PARENTMASS: 212.104858992
NUM PEAKS: 9
50.97346115 0.8082446014287858
51.68608856 0.7350232795139794
55.01780319 0.9277393985798232
55.77463531 0.7379724304695076
56.52048111 0.7563018798483294
63.50701141 0.7451505272259741
83.10452271 0.8265411210432548
115.3355713 0.7878927694954214
221.2794647 1.0


