PRECURSORMZ: 1195.5905778240003
COMPOUNDNAME: casmi2022challengepriority128
FORMULA: C60H92O24
SMILES: CC=C(C)C(=O)OC1C(OC(C(C1OC(=O)C(=CC)C)O)OC2C(C3(C(CC2(C)C)C4=CCC5C6(CCC(C(C6CCC5(C4(CC3O)C)C)(C)CO)OC7C(C(C(C(O7)C(=O)O)O)O)OC8C(C(C(C(O8)CO)O)O)O)C)CO)OC(=O)C)C
INCHIKEY: YWRZZQBSAZIBEQ-ZPKFMWSBSA-N
PRECURSORTYPE: [M-H]-
PRECURSORINTENSITY: 480817.421875
IONMODE: negative
CHARGE: -1
PARENTMASS: 1196.5978538240004
NUM PEAKS: 5
221.330368  1.0
229.3768311 0.9508139589364896
282.0720215 0.9479187681749438
285.5009155 0.9098371438089385
452.2966919 0.9656971055498818


