PRECURSORMZ: 337.27372101199995
COMPOUNDNAME: casmi2022challengepriority228
FORMULA: C21H36O3
SMILES: CCC(C)C1C(=CC2CC(CC(C2C1(C)C(=O)CCO)C)C)CO
INCHIKEY: VOCMJEUNEDTYIN-JKMCDVCNSA-N
PRECURSORTYPE: [M+H]+
PRECURSORINTENSITY: 1647708.181641
IONMODE: positive
CHARGE: 1
PARENTMASS: 336.26644501199996
NUM PEAKS: 42
50.44831085 0.057470110950333275
55.05442047 0.37864041481886007
56.47858047 0.060056200280636345
57.04655838 0.053873008221919726
57.06988525 0.09138621108924233
62.46789551 0.05553457638174241
67.0544281  0.1296119176374322
69.07000732 0.3913471629745052
73.02838135 0.2400695989414784
81.06982422 0.24123317545522371
83.08562469 0.09230498915067571
85.06468201 0.07262388225525648
91.05420685 0.06229776590293415
93.06982422 0.20785996877558452
95.0856781  0.4891701300420853
97.10103607 0.25787270917810656
105.0698624 0.2959294401370987
107.0853882 0.5281587275703316
109.1012726 0.3902293302614947
119.0853729 1.0
121.1011658 0.24042609897973227
123.1166382 0.12742962416792908
133.1008148 0.35145510024779064
135.1164856 0.10014291921654972
137.1324005 0.09645062791158035
142.9428558 0.059570065578513805
144.724411  0.058202621260532904
145.1010895 0.06772563230248255
147.1166992 0.5027411092901839
157.1014252 0.08623484334457486
159.116333  0.1204734372786641
161.1325226 0.5152611875512921
163.1470184 0.09744727097008864
173.1321869 0.09469759100075609
175.1483002 0.1278680986051358
185.1313171 0.07141608254514019
189.1660004 0.07120297801191136
191.1423492 0.07322418167105285
201.1639099 0.087595187319858
217.1949463 0.08067282445248569
221.1596375 0.08691325909701061
260.2848816 0.0544327791329455


