PRECURSORMZ: 199.096484928
COMPOUNDNAME: casmi2022challengepriority41
FORMULA: C10H14O4
SMILES: CCCC1=C(C=CC(=O)O1)C(CO)O
INCHIKEY: WYOIVALENVXRJQ-QMMMGPOBSA-N
PRECURSORTYPE: [M+H]+
PRECURSORINTENSITY: 14548810.08789
IONMODE: positive
CHARGE: 1
PARENTMASS: 198.089208928
NUM PEAKS: 64
51.02727127 0.001347545294078715
53.03911591 0.001403931607058509
55.01810074 0.014909970251960171
55.05453873 0.0027063464039328014
57.03365707 0.0074509495538829275
57.07008743 0.0015033102891513184
61.02861404 0.014945159771305786
67.05427551 0.013587473951902075
68.05582428 0.0015426131915557148
68.95267487 0.0012277753988633544
69.03356934 0.020663693165668795
71.04922485 0.051313878303771994
79.05415344 0.028267166149006793
81.03387451 0.0025906381572479414
81.06998444 0.0056286430478682415
83.0490799  0.008612256681831984
89.060112   0.001648944799022954
91.054245   0.04987541410826456
93.03356934 0.002627344014222627
93.06999207 0.046583868753070495
95.04908752 0.005903629217485759
95.08547974 0.019552137641480075
96.62165833 0.0014705214750311592
97.0284729  0.05036375681916303
97.06491089 0.001507163465660948
105.0700912 0.019465250407655812
107.0492783 0.02809195036576752
107.085495  0.06733830456021186
107.9068451 0.0013586991747053844
108.3925095 0.0015573795646063012
109.0283585 0.012829831686110415
109.064888  0.0028742978785048245
109.1010284 0.002280933935778247
111.0440903 0.01193184410359309
111.079834  0.010051071166113023
115.0543823 0.012502976562120148
117.0623169 0.0014137553106901815
117.0697327 0.0758579924135573
119.0490112 0.03040987811485702
119.0857544 0.0070222819938326325
121.0285263 0.0034692976642262934
121.0645676 0.03179743218784174
123.0804672 0.0077786815153765435
125.0959702 0.002094737045714268
133.0647278 0.01580729295514926
135.0441284 0.006419457325849273
135.0684357 0.0025289279290264003
135.080368  0.11308325624302948
139.0384674 0.0019027835389497341
139.0658112 0.001489574981065679
139.0752869 0.06513713006738896
145.064621  0.0395282451805084
146.8051147 0.0014117898169545265
152.9513702 0.008623638835835386
153.0902557 0.00197940474589795
154.9668884 0.002826164965860722
163.0752258 0.386972477601331
170.9633331 0.0017656047658032767
181.0857391 0.17392491779235644
199.0525055 0.01116104146626579
199.0963593 1.0
199.153183  0.005200499247624337
199.1884918 0.06770501005226148
219.5746918 0.002147463036234563


