PRECURSORMZ: 181.01424729200002
COMPOUNDNAME: casmi2022challengepriority23
FORMULA: C8H6O5
SMILES: C1=CC(=C(C=C1O)C(=O)O)C(=O)O
INCHIKEY: MWRVRCAFWBBXTL-UHFFFAOYSA-N
PRECURSORTYPE: [M-H]-
PRECURSORINTENSITY: 8493156.94873
IONMODE: negative
CHARGE: -1
PARENTMASS: 182.021523292
NUM PEAKS: 29
67.26830292 0.0013247001016963031
92.91854095 0.06117347132440627
92.99238586 0.01663079269275136
93.012146   0.002412007456195097
93.019104   0.009841992150072918
93.02138519 0.004688173194721471
93.03308105 1.0
93.03845215 0.013691330139307192
93.0438385  0.006911201211892412
93.04782867 0.008983224503591195
93.05031586 0.0120392015280592
94.03640747 0.006912612734761294
96.95804596 0.0010986256311366373
112.9842377 0.001847826558678205
118.6562119 0.0015428369399249388
136.8704987 0.0050682764586705105
136.9082794 0.009903481867026236
136.9825439 0.014687632345387617
137.0229187 0.35217617244610455
137.0325165 0.004392195529061026
137.0473633 0.002710884544822462
137.0534973 0.002069136187639771
138.0261383 0.0044698951370119155
152.7553253 0.0010837086655215702
152.9158783 0.0026232597047407243
170.6911011 0.0011002250733464975
172.83992   0.0009896679142085952
173.4217834 0.0010368514594001593
181.0123444 0.006130945773324812


