PRECURSORMZ: 371.1828939959999
COMPOUNDNAME: casmi2022challengepriority229
FORMULA: C20H28O5
SMILES: CC1=C(OC=C1)C(C(C2(CCC=C(C(=O)O2)CCC=C(C)C)C)O)O
INCHIKEY: HETFHSADNIQCEJ-UHFFFAOYSA-N
PRECURSORTYPE: [M+Na]+
PRECURSORINTENSITY: 24308134.49609
IONMODE: positive
CHARGE: 1
PARENTMASS: 348.1936759959999
NUM PEAKS: 21
55.05450821 0.020800672868721583
65.69348145 0.004246112185251741
74.75234985 0.003940307761964292
75.30787659 0.003846944254412051
80.55474091 0.004563016956468408
83.04933167 0.016261686704709157
86.28341675 0.003964396623920639
111.0253448 0.007902421528651817
111.0440521 1.0
111.0673676 0.006600032423105529
133.0260162 0.05858767992253993
146.0337219 0.021326053043933525
165.0546112 0.017808190009096007
186.0652924 0.005266943605920859
205.0839386 0.020937074495736074
211.9148865 0.004533006366478754
215.1042786 0.021061401296018335
220.0440979 0.008331252086146894
261.1463013 0.020322145706945065
353.1719055 0.06401127326438392
371.1817017 0.06154708675769177


