PRECURSORMZ: 1103.527977568
COMPOUNDNAME: casmi2022challengepriority174
FORMULA: C53H84O24
SMILES: CC1(C2CCC3(C(C2(CCC1OC4C(C(C(CO4)OC5C(C(C(C(O5)CO)O)O)O)O)OC6C(C(C(C(O6)CO)O)O)O)C)CC=C7C3(CCC8(C7CC(CC8)(C)C(=O)O)C(=O)OC9C(C(C(C(O9)CO)O)O)O)C)C)C
INCHIKEY: VQMRBUNQTLAATK-JOUDUNFKSA-N
PRECURSORTYPE: [M-H]-
PRECURSORINTENSITY: 4256755.986328
IONMODE: negative
CHARGE: -1
PARENTMASS: 1104.5352535680001
NUM PEAKS: 56
159.0278931 0.008543303535319988
161.0443573 0.03597279533335412
183.8519592 0.005047484370672013
204.7213135 0.002168380394154357
220.4729004 0.0034964224704900483
221.0653992 0.005052109950805827
247.082077  0.004164463488339937
275.0767822 0.04902771809439118
342.2148132 0.0019407510524421718
357.8407593 0.0020974266495885755
406.4701538 0.0020458983646902693
439.3197021 0.008630188048983606
441.3367615 0.18041493999051994
441.4085083 0.0031889797196605436
469.3308716 0.03389079781588176
485.3267822 0.03021241279635908
495.3482666 0.009399605982331308
513.3230591 0.0176159897666903
527.336792  0.024208897651991558
537.3567505 0.03711983188940959
555.3688354 0.15486570221326332
555.4666138 0.004624485075463147
556.9371338 0.0024742679291341113
563.3346558 0.0029109438041754
571.3600464 0.007911099025696014
573.1605835 0.0103045407402939
573.3790283 1.0
574.3826294 0.011672374525940696
581.3450317 0.004830720358895596
599.3586426 0.030098642517375207
617.2756348 0.0027759436197593657
617.3684692 0.14575307706454435
617.4831543 0.003965087322819418
623.3596802 0.003107829259123199
631.3847046 0.008211771265849611
641.3693237 0.029940281970676892
659.3795166 0.1279884657807468
717.4193115 0.07820994574497744
733.4179077 0.004498973455164259
735.4321899 0.7656023970354264
735.8337402 0.003149188010349438
736.4376831 0.013108088514717358
761.4099731 0.05116344760461387
779.421814  0.2526056599280546
780.4287109 0.0033095865234762435
793.44104   0.010665293628706225
803.4213257 0.01545179297554028
821.4338379 0.10670280203898029
897.3209229 0.003287918700608703
897.4844971 0.1677927283719833
898.4874268 0.004308401883562495
941.4750366 0.1906977285369128
942.4812012 0.0036752872964307
983.4805908 0.02445068879523304
989.8805542 0.002250498650458861
1394.036499 0.0027197334485354486


