PRECURSORMZ: 331.19038531199993
COMPOUNDNAME: casmi2022challengepriority182
FORMULA: C20H26O4
SMILES: CC(C)C1=C(C=C2C(=C1)C(=O)CC3C2(CCCC3(C)C)C(=O)O)O
INCHIKEY: XYZWRQXZTNPKPD-OZBJMMHXSA-N
PRECURSORTYPE: [M+H]+
PRECURSORINTENSITY: 95616111.7793
IONMODE: positive
CHARGE: 1
PARENTMASS: 330.18310931199994
NUM PEAKS: 98
53.77433395 0.009347694087157278
53.77754593 0.006246765503010856
55.0545311  0.04163962775204845
59.04932404 0.005894263345441106
60.78185654 0.005974618237652964
60.7855072  0.004025433894082091
67.05384064 0.001432587561441142
69.0656662  0.003083643729458091
69.06996918 0.09650143808103885
71.29281616 0.006543178498777759
71.29759979 0.0039926337298128705
79.05440521 0.0021980243667621834
81.06986237 0.002962774326153685
83.08554077 0.07685574115711316
95.08537292 0.002328619265167103
107.0490723 0.014101572411074346
107.0855789 0.03902671619323031
119.2005386 0.001474579427080016
120.5167313 0.0015691318687924903
121.0648422 0.01520439892062304
121.1008911 0.009978872140055373
123.0801773 0.001547208454392186
125.0957108 0.002014912568829223
133.0647125 0.08506445487519473
133.0761566 0.002895660614526062
135.0797272 0.0016275771682956772
145.0648193 0.015983429267520343
147.0803528 0.02183889199163137
149.0960236 0.10160653259233615
157.0636597 0.0016147668559119417
159.0805969 0.02008083326280216
161.0597992 0.023572842741625404
161.0960236 0.045938818124972934
163.0765381 0.002703622583847409
163.1116791 0.09193463911771024
163.1238098 0.0014199158345521781
165.0914154 0.011544084729968464
167.1065063 0.02145371130067877
173.0595856 0.3000000660492571
173.0948944 0.002497518862606317
175.0749969 0.012403109867938284
175.111557  0.03078817121024224
177.1272278 0.01804866127119721
179.0697937 0.0022110127025341494
179.1057434 0.0018041260584629338
182.0723572 0.0016297764758682906
183.0801392 0.007167751625967586
185.0962982 0.0022884694624444395
187.0752716 0.08588412025833563
187.1106873 0.021304209986723156
189.0910492 0.01564387269062311
189.1266479 0.013792053503011988
193.0840759 0.0019186498309941046
197.0955505 0.001688161144217515
199.0756531 0.005532903142137718
199.1118622 0.007587897142388328
200.0838013 0.0019887827529419993
201.094223  0.017308058912823568
201.1272736 0.10962730668774204
201.1438446 0.0016336297792062973
201.648407  0.0014887860067524987
203.1068268 0.05891980001983365
203.1425323 0.039410674678064125
205.085556  0.020399341061945617
207.1024933 0.0020342317922366834
213.1264648 0.0016072203965696468
215.0567474 0.009357289658356444
215.0669556 0.003378681190473697
215.1065826 1.0
215.144165  0.027762602174662355
215.1695709 0.0067810000536886106
217.1221771 0.03266107750776527
219.1383209 0.013352982220672266
219.9996033 0.002217499683140484
221.1166382 0.00574091960121157
225.1268616 0.032445807056344075
227.1066437 0.002427760047778617
227.1430664 0.001962511218643233
229.1222687 0.11411266455818567
241.1214752 0.0027704019948267392
241.1574554 0.0014969725947066143
242.1296692 0.013526548758363606
243.0795746 0.0061943013102002415
243.1377411 0.6302955109811136
243.1737823 0.2000111151464062
243.1957245 0.004473651081919856
247.1330566 0.017264223141376264
257.1901245 0.01007735851164038
261.1490173 0.005959751626132709
261.1843262 0.016442798901902794
267.174469  0.008362059305203333
277.3585815 0.001634811625985514
285.1108398 0.0044305756878015795
285.1847534 0.5711846811769336
285.2805176 0.0024402651772111005
289.1433716 0.0342804018361316
303.1954651 0.007156677318052932
331.1898804 0.0686765314062802


