PRECURSORMZ: 185.06080356
COMPOUNDNAME: casmi2022challengepriority11
FORMULA: C12H10O2
SMILES: CC1=CC=C(C2=CC=CC=C12)C(=O)O
INCHIKEY: SIVYRLBDAPKADZ-UHFFFAOYSA-N
PRECURSORTYPE: [M-H]-
PRECURSORINTENSITY: 2610136.481445
IONMODE: negative
CHARGE: -1
PARENTMASS: 186.06807956
NUM PEAKS: 13
70.09516144 0.0023076660554102067
98.12702179 0.002150256334224072
104.3726883 0.0023239989709400795
116.9269028 0.0026054030096696306
140.8661041 0.004667456595931867
141.0433502 0.0027882971561595943
141.0696259 1.0
141.097229  0.009275044339668213
142.0731354 0.015192497662084156
150.7639618 0.0024828080159088233
185.0096741 0.00475290109401651
185.0597382 0.08533679732751666
198.6562805 0.002498179466466787


