PRECURSORMZ: 270.206374628
COMPOUNDNAME: casmi2022challengepriority136
FORMULA: C15H24O3
SMILES: CC12CCC(C3C1C(C(C3C2=C)O)O)C(C)(C)O
INCHIKEY: ZQCSOQVURYSVKL-DHMVUYJDSA-N
PRECURSORTYPE: [M+NH4]+
PRECURSORINTENSITY: 11754152.96484
IONMODE: positive
CHARGE: 1
PARENTMASS: 252.17255162799998
NUM PEAKS: 58
55.05453491 0.1590729624902549
57.07036972 0.02346443569904542
66.4469986  0.016777638709824058
67.05440521 0.13101609049072135
69.06999207 0.30574953083124395
71.04922485 0.028639982221257954
79.05428314 0.1935731438949753
81.06983185 0.3954899871073074
83.04902649 0.015716535823113467
83.08556366 0.08385175401087996
91.05426025 0.39236453494524387
93.06986237 0.4104823583909401
95.08561707 0.32976152297901107
97.06496429 0.01574297043211071
105.0617981 0.031836778133388616
105.0698624 1.0
107.0854111 0.5930594338013143
107.092865  0.030138126737112168
109.0647964 0.03066964324278249
109.1013107 0.10039436630364126
115.054512  0.02301630766348595
117.0698929 0.21948736159791643
119.0601196 0.019103443949720484
119.0854645 0.8470949329774345
121.1012421 0.13966735449289822
123.08078   0.058216837489445054
128.061676  0.1362265091684969
129.06987   0.35805167011119676
130.0780182 0.034319546034687176
131.0853577 0.5421897169438488
133.1010132 0.5926882019984754
133.111969  0.023321964156910936
141.0699158 0.02047050702079494
142.077652  0.30272409421815644
143.0730743 0.020878854917795415
143.085434  0.7557267742569425
144.0937195 0.07854606411145161
145.1010742 0.4057502596894956
146.1092377 0.0643544718423161
147.1165619 0.3104894310154561
151.2483063 0.01592638963574364
155.0864716 0.03636346365858802
156.0935974 0.10326797094501061
157.1010284 0.7746945813978098
159.1166382 0.20884294022498504
161.0943909 0.019200053098673717
161.1327362 0.033870576100360004
169.101532  0.07799154470438589
170.1091461 0.08074353124804289
171.116806  0.1549489340313096
173.1326141 0.10088404432106043
174.1395569 0.024138298896130853
175.148407  0.023094627869272157
184.1248474 0.10269498712890317
189.1635132 0.28408454323803106
199.1481171 0.4466222549038663
216.1384583 0.0759845997650377
217.1586761 0.025285430676941775


