PRECURSORMZ: 541.1632179399999
COMPOUNDNAME: casmi2022challengepriority214
FORMULA: C33H25F3O4
SMILES: C1C(CC2=CC=CC=C2C1C3=C(C4=CC=CC=C4OC3=O)O)C5=CC=C(C=C5)OCC6=CC=C(C=C6)C(F)(F)F
INCHIKEY: KKBGNYHHEIAGOH-UHFFFAOYSA-N
PRECURSORTYPE: [M-H]-
PRECURSORINTENSITY: 1597736.476563
IONMODE: negative
CHARGE: -1
PARENTMASS: 542.1704939399999
NUM PEAKS: 25
79.95605469 0.05022016233188313
80.91519928 0.027510060108013424
87.63074493 0.01953707355602325
161.0231476 0.6066992405484424
174.0313873 0.03013085389648331
197.9625549 0.02100166310421966
206.0219574 0.08409732640317993
221.1932831 0.02736494364216643
221.9261932 0.022368038544882084
289.0859985 0.12685256362949887
293.8247375 0.021347539744872385
296.4988403 0.022842664377405005
367.0973206 0.03756119656981783
377.048584  0.03515831919091481
379.0637817 0.6124973531098163
381.064209  0.08852237933093848
382.1208191 0.5624261599673949
458.9745483 0.043045478528949604
459.9800415 1.0
461.9790649 0.043328491527741916
540.8947144 0.047762153963893
541.163269  0.22898156572410813
575.1802368 0.022757563342208312
787.4821777 0.025012620442711173
1082.640015 0.023865969533942193


