PRECURSORMZ: 741.3245324200001
COMPOUNDNAME: casmi2022challengepriority113
FORMULA: C41H50O11
SMILES: CC1C(C(OC1C2=CC(=C(C=C2)OC(C)C(C3=CC(=C(C=C3)O)OC)O)OC)C4=CC(=C(C=C4)OC(C)C(C5=CC(=C(C=C5)OC)OC)O)OC)C
INCHIKEY: CPGFYBGUXQXJMQ-KZQPWMIESA-N
PRECURSORTYPE: [M+Na]+
PRECURSORINTENSITY: 4106927.875
IONMODE: positive
CHARGE: 1
PARENTMASS: 718.33531442
NUM PEAKS: 12
64.6752243  0.22326883234572262
83.15659332 0.23116281911336742
86.01546478 0.21710515238319647
87.89769745 0.22456816469083457
117.0695343 0.49672774928675056
137.0596161 0.4362131632406679
145.0642548 1.0
150.857254  0.27499356069661973
199.0735016 0.42318586089769805
220.0489044 0.33398072729390893
479.1379089 0.27321945297625144
493.7145386 0.24095552815333413


