PRECURSORMZ: 457.0906989039999
COMPOUNDNAME: casmi2022challengepriority240
FORMULA: C20H22O10
SMILES: C1=CC(=CC=C1COC(=O)C2=CC(=C(C=C2)O)O)OC3C(C(C(C(O3)CO)O)O)O
INCHIKEY: LRFIKYDSTHZRKW-STEXWYFWSA-N
PRECURSORTYPE: [M+Cl]-
PRECURSORINTENSITY: 15806596.0
IONMODE: negative
CHARGE: -1
PARENTMASS: 422.1212969039999
NUM PEAKS: 32
53.53955078 0.006147903306658791
59.38253403 0.008149185704456219
65.00193024 0.011750391351026492
67.01734924 0.006392855504187491
83.01220703 0.009764507672239508
91.01742554 0.05065866714705655
95.01256561 0.010042832466700949
108.0202789 0.059029155896965564
109.0280609 1.0
109.0473557 0.006671989279858885
111.0072403 0.06445777370376843
111.6221695 0.007158025060172009
119.4768372 0.007733140183878607
123.0072327 0.03862879661998744
123.6614838 0.007566461978619641
124.0150757 0.06474431106131147
139.0022736 0.013006028128382443
145.2621765 0.006806889345097704
148.9481049 0.00661276780712463
152.0104065 0.008056850195369352
153.0036316 0.010158764240472079
153.0180359 0.4370667099251576
176.5420837 0.007777261979889983
208.7451324 0.006173859916035402
218.6875458 0.007786931884424746
220.2561798 0.010773501161401893
225.3187714 0.007722933570260423
281.6489563 0.0064903191314521404
289.2596436 0.00668237218478202
299.696991  0.007359135568984966
382.3229065 0.0067802804578931996
441.5942078 0.006352012073515164


