PRECURSORMZ: 564.2492971560001
COMPOUNDNAME: casmi2022challengepriority63
FORMULA: C34H33N3O5
SMILES: COC1=CC=CC2=C1NC3=C(C2=O)C=CC=C3C(=O)NC4=CC=C(C=C4)CCN5CCC6=CC(=C(C=C6C5)OC)OC
INCHIKEY: OSFCMRGOZNQUSW-UHFFFAOYSA-N
PRECURSORTYPE: [M+H]+
PRECURSORINTENSITY: 267741589.7578
IONMODE: positive
CHARGE: 1
PARENTMASS: 563.2420211560001
NUM PEAKS: 148
78.03376007 0.0017380396093968809
78.04669952 0.0017553079195892394
79.05432129 0.009766096347702828
80.04959106 0.0010033318136065251
90.04669952 0.001157651359694818
91.05417633 0.027870829047088284
93.05735779 0.00824644738405004
93.06972504 0.012109635756466185
94.06509399 0.006032603413377818
95.04917145 0.0065368574522369485
103.0541763 0.03552721416790451
104.0620422 0.005491808199500948
105.0336685 0.001557122561332934
105.0449371 0.0026634060956760024
105.0700378 0.01645765241025403
106.0287933 0.006302538233232801
106.0651169 0.004296997074432298
107.0493546 0.013220919206161849
115.0543289 0.005536183026097041
117.0696793 0.010169763108896996
118.0653229 0.010711372951313662
118.0739365 0.001359085387398023
119.049057  0.005215270402709068
119.0734482 0.0026252567227023353
119.0854874 0.010993268668560431
120.0576096 0.007822700834048133
120.0807114 0.5793283258595245
120.1081848 0.0024198835259933824
121.0647049 0.033536046973885424
122.0724945 0.00917193936900921
124.0393143 0.006987328886230821
130.0288391 0.0018978898292390653
130.0650482 0.0017033928994469921
131.0492706 0.0059286857123509165
132.044693  0.001494362434928335
132.0565796 0.002766225640449384
132.0805664 0.00233364812671185
133.0648041 0.008478907921375328
133.0753174 0.001401075739073198
134.0726471 0.009696902573412585
135.0441284 0.002752253168716686
135.0801849 0.008805941387616955
136.0522308 0.0016653171477999564
141.0698547 0.004583494295805916
145.0280762 0.007065527062405244
145.064209  0.0017142148920370297
146.0723877 0.0017674198263068134
147.0804901 0.007753661150906653
148.0883484 0.00931138432529499
149.0597076 0.03348558178024066
149.095993  0.004133528280779988
150.0549774 0.0016383024012359287
150.0674438 0.02060074153317762
151.0753174 0.0017292875745718978
152.7268372 0.0011436148545291894
160.0758362 0.002756530567793969
163.061264  0.0013571268032910473
163.0752716 0.0045241630398860765
164.0830994 0.12825964279124077
165.0909119 0.14179706932605982
166.0649109 0.01201538676138702
167.0727081 0.023307503912956388
168.0807953 0.03624948389737907
169.0647888 0.01070061738912998
174.0907898 0.011939823201431676
175.0990295 0.009991376237495743
177.0908661 0.007511731198852696
178.064743  0.006461121310194988
178.0994873 0.0018521968384714947
179.1063995 0.036421046927863535
180.0813599 0.004180382605172071
181.0523071 0.0015841232684811856
182.0601349 0.0014192979590825952
184.075058  0.0014852523950010586
185.0198669 0.001171288083935599
190.0860748 0.004091924697888209
191.0932617 0.002186472931129776
192.1019745 0.0025207334434607935
194.0596008 0.02387464974054612
194.0757141 0.0013787730998383535
195.067749  0.03953280604666269
196.075592  0.2619228471507848
197.0601349 0.00811587670823393
198.0551605 0.001361058781376519
200.0708618 0.00265434810431453
204.1011047 0.0013798783614059557
206.0598907 0.016542903851944513
206.1174469 0.047282599167310604
207.0471039 0.0029544327407613246
207.0677185 0.008009864737282947
209.0471191 0.048254833503760426
209.0681152 0.0022748779337858965
210.0546722 0.014932452740998008
211.0624847 0.001712620048647329
213.041626  0.00486210068066375
213.2766876 0.0012994741136184032
215.0501709 0.0026389240939604817
215.0739746 0.0032701607106305746
221.046936  0.012731617487529164
222.0299225 0.0015320717920660892
222.0545959 0.03306622100675733
223.0625763 0.05565260025868685
223.0863953 0.002430651244256578
224.0166931 0.001339167479902679
224.0704041 0.32923937212116644
225.0399017 0.001418192098271637
225.0782928 0.004267252688774121
226.0496521 0.0072641669895504015
227.0575714 0.02309972603826479
228.0653534 0.007669403425913305
231.5166931 0.0012246019092838425
234.1220703 0.0013452483446638496
237.0417023 0.027294585678075568
237.0662231 0.002033276709515968
238.0506744 0.007296277530404033
239.0298462 0.0032096477468121073
239.0575714 0.13853726217092704
239.0861664 0.002209152922466703
240.0662537 0.008672568307442003
241.0362854 0.014320632807558811
251.0814819 0.0049291714213488096
252.0016937 0.005527809028223691
252.0652924 0.6262522446628853
255.0523529 0.19263958767893202
256.0606384 0.006865983133854009
270.0052185 0.00794169412822049
270.0209656 0.0038097105256006624
270.0759277 1.0
270.1286316 0.00548375710819045
270.1417236 0.005437189393335066
297.1030579 0.0026679300405913066
309.1028137 0.006384881803733734
310.1087952 0.0016850539981955036
325.0970154 0.009453305012704234
326.1019897 0.00228698299200797
337.0986023 0.003932309552654082
338.1029358 0.014612033551710852
339.1117554 0.014273949353129466
340.1204834 0.10797152822916972
351.1333313 0.0015068232724916647
353.1276245 0.0347490196241721
354.1326599 0.0024435734992042596
366.1197205 0.0015831552336421767
367.1314697 0.023671183678621692
380.139679  0.002724199676597606
382.1546326 0.12203702307625214
438.1480408 0.0017678721694346278
454.1726379 0.0015190512612079739


