PRECURSORMZ: 493.2290473519998
COMPOUNDNAME: casmi2022challengepriority216
FORMULA: C21H36O10
SMILES: CC1(C2CCC1(C(C2)OC3C(C(C(C(O3)COC4C(C(CO4)(CO)O)O)O)O)O)C)C
INCHIKEY: RVQFSOHDFFWTLD-CNWHQPCMSA-N
PRECURSORTYPE: [M+FA-H]-
PRECURSORINTENSITY: 74897217.05469
IONMODE: negative
CHARGE: -1
PARENTMASS: 448.2308463519998
NUM PEAKS: 35
52.34625626 0.011025996992862969
55.01758575 0.15150249638028918
55.02005768 0.009169700533460303
57.03331375 0.1327475398430852
57.24455261 0.00852676921694186
58.00482559 0.011375856556249366
59.01252365 0.6709265227595019
59.41267776 0.009791983840077007
69.03317261 0.020518649235383546
71.00214386 0.009092041600480012
71.00872803 0.015254408852677507
71.01248169 1.0
71.36659241 0.010763918521190487
72.99170685 0.023805401108086634
73.02811432 0.473890468729987
75.00738525 0.02411905445961077
81.11154175 0.009972035889269275
83.01246643 0.24400313321443215
85.02364349 0.009835997508395446
85.02810669 0.6159307487402528
85.99951172 0.038142287945691966
87.00756073 0.042573636962417186
89.022995   0.02456077009509006
95.01250458 0.11525340506882728
97.0281601  0.05599077662628146
99.00731659 0.14315539641361372
101.0229874 0.504323451953383
113.0230103 0.20631293900843373
115.0387192 0.042882586289713066
125.0230484 0.022460572516521154
153.1277924 0.02306211006146369
161.0442047 0.015183808194629885
221.3123322 0.014595315661038616
335.3213501 0.011938720216721398
518.3928833 0.013078115623291807


