PRECURSORMZ: 1145.5232828080007
COMPOUNDNAME: casmi2022challengepriority52
FORMULA: C50H84O26
SMILES: CC1C(C(C(C(O1)OCC2C(C(C(C(O2)OCC(=CCC(C(=CCCC(=CCCC(C)(C=C)OC3C(C(C(C(O3)CO)O)O)OC4C(C(C(C(O4)CO)O)O)O)C)C)O)C)O)O)OC5C(C(C(C(O5)C)O)O)O)O)O)O
INCHIKEY: XBQGYUHHNKDVKX-LJPKUSMYSA-N
PRECURSORTYPE: [M+FA-H]-
PRECURSORINTENSITY: 4045416.424805
IONMODE: negative
CHARGE: -1
PARENTMASS: 1100.5250818080006
NUM PEAKS: 10
85.02783966 0.8330458869028954
85.99938965 0.25550176402716385
87.0071106  1.0
92.4588089  0.13143148776380326
97.02773285 0.2077061144264826
106.2884064 0.10754918169076212
141.4774628 0.11930139217298201
304.2691345 0.20760800781967292
304.3031006 0.27067740196855905
358.2575378 0.125271744833129


