PRECURSORMZ: 127.07535556
COMPOUNDNAME: casmi2022challengepriority151
FORMULA: C7H10O2
SMILES: CC1CC(C(=O)C1=O)C
INCHIKEY: MIDXCONKKJTLDX-UHFFFAOYSA-N
PRECURSORTYPE: [M+H]+
PRECURSORINTENSITY: 3814768.608398
IONMODE: positive
CHARGE: 1
PARENTMASS: 126.06807956
NUM PEAKS: 24
50.50831985 0.004417736925531477
53.03885651 0.10540561147253397
53.36662674 0.0052429268162037185
55.05456543 0.010199826010571388
57.03382111 0.009362342273678275
65.03862    0.03210262379967393
66.04652405 0.008972314665118232
67.05445862 0.009353391341794762
69.03343964 0.006163348133928403
71.04895782 0.00868603581331582
72.26322937 0.004334136984960071
74.3066864  0.0044683217335770315
79.05418396 0.656547744388214
79.05981445 0.00673453963053614
81.06983948 1.0
81.08374023 0.006429178825582538
85.06467438 0.040420121962237876
95.04898834 0.00926877466893883
99.08044434 0.03490924974342275
100.1971893 0.004912787015255355
100.9866409 0.004368881628368523
105.0448227 0.0077021172739641375
109.0647583 0.18256722176350346
127.0751495 0.1406514794079934


