PRECURSORMZ: 665.3906333719999
COMPOUNDNAME: casmi2022challengepriority191
FORMULA: C35H56O9
SMILES: CC1(CCC2(CCC3(C(=CCC4C3(CCC5C4(CCC(C5(C)CO)OC6C(C(C(CO6)O)O)O)C)C)C2C1)C)C(=O)O)CO
INCHIKEY: UKDGPTZSBZPKIO-DEOHUDLUSA-N
PRECURSORTYPE: [M+FA-H]-
PRECURSORINTENSITY: 27528822.47266
IONMODE: negative
CHARGE: -1
PARENTMASS: 620.3924323719999
NUM PEAKS: 16
59.01253128 1.0
71.01254272 0.47351293758360974
71.65494537 0.06850593770672916
80.7963562  0.06242890887549011
85.02816772 0.0786781508268412
88.75624084 0.06444569669940164
89.0226059  0.2946630471007934
101.0237885 0.059580495151964265
172.4329681 0.07027641197258913
201.3054504 0.058447866406021405
226.3320007 0.06728138277401992
237.9201355 0.056455582331409584
267.98349   0.060798581754892195
304.2964172 0.10909307900154094
381.8443909 0.0647642619411308
504.1392212 0.061984101197416576


