PRECURSORMZ: 625.8278205720002
COMPOUNDNAME: casmi2022challengepriority248
FORMULA: C19H11Cl2I2NO3
SMILES: C1=CC(=CC=C1OC2=C(C=C(C=C2)NC(=O)C3=C(C(=CC(=C3)I)I)O)Cl)Cl
INCHIKEY: NEMNPWINWMHUMR-UHFFFAOYSA-N
PRECURSORTYPE: [M+H]+
PRECURSORINTENSITY: 532305.4453125
IONMODE: positive
CHARGE: 1
PARENTMASS: 624.8205445720001
NUM PEAKS: 18
50.42226028 0.04201797509154039
52.93390656 0.03981613620548007
53.21095276 0.039143797959264315
63.02309799 0.0720965744299773
73.4899292  0.040164774956331674
73.96936035 0.03880358783755345
91.01760864 0.050607310095323425
127.0180511 1.0
168.0468597 0.041056242965195736
186.2668152 0.043308836063965926
199.5153656 0.04007916051729452
217.9221039 0.6573518662955248
239.1340027 0.04801565258460521
245.9152679 0.05187571296715731
277.9049988 0.10023489239377155
278.9147644 0.04375222574189525
283.9133911 0.046701483351158354
372.8196411 0.2649916049394248


