PRECURSORMZ: 185.118318436
COMPOUNDNAME: casmi2022challengepriority32
FORMULA: C10H18O3
SMILES: CC(CCCC(=CCO)C)C(=O)O
INCHIKEY: YVJQQTNULQIMBG-VIFPVBQESA-N
PRECURSORTYPE: [M-H]-
PRECURSORINTENSITY: 5049992.236328
IONMODE: negative
CHARGE: -1
PARENTMASS: 186.125594436
NUM PEAKS: 22
53.72312164 0.009458065839180603
63.65648651 0.008830868802141192
63.93875885 0.008930710603988022
70.07827759 0.010169826571419486
73.02328491 0.009741312999519885
73.02812958 0.7186793639768393
73.03200531 0.010821236740044225
73.03290558 0.016783146829608315
73.03899384 0.013422854580012708
77.50771332 0.010323963023669766
85.02804565 0.08924017473787062
128.5259552 0.010871523409461096
137.0960999 0.12731723190800848
139.8710938 0.012681638034449287
149.0962372 0.08176829308868215
155.0920105 0.013791819060716071
155.1064911 0.7377177242217555
167.1065979 0.6685400615103035
167.122757  0.019911316575658807
183.1008148 0.014620462321869256
185.1172485 1.0
185.160202  0.010806870888490073


