PRECURSORMZ: 555.2775822279999
COMPOUNDNAME: casmi2022challengepriority16
FORMULA: C26H44O11
SMILES: CC1(CCC2C3(CCCC(C3CC(C2(C1)O)O)(C)C(=O)O)C)C(COC4C(C(C(C(O4)CO)O)O)O)O
INCHIKEY: SFLNQLHULUYBES-UHFFFAOYSA-N
PRECURSORTYPE: [M+Na]+
PRECURSORINTENSITY: 1285500.375
IONMODE: positive
CHARGE: 1
PARENTMASS: 532.2883642279999
NUM PEAKS: 17
56.53205872 0.03827215620750331
57.69167709 0.03800095363453345
65.77864838 0.03530660539315088
68.26210785 0.04518045180071867
69.39445496 0.03428983496226587
80.3647995  0.043470389626618394
104.4431305 0.04104907678833563
122.9811249 0.03790664203568116
123.7519684 0.0371483323145475
137.5101929 0.04459650015985447
165.908432  0.03723316666891885
220.0391235 0.0404951399395715
233.9703369 0.040762624083654934
327.5944519 0.037582737681130414
352.9214783 0.044743393931412204
363.8540344 0.03703588238141626
555.2770996 1.0


