PRECURSORMZ: 405.1402323479999
COMPOUNDNAME: casmi2022challengepriority217
FORMULA: C16H24O9
SMILES: COC1=C(C=CC(=C1)OC2C(C(C(C(O2)CO)O)O)O)CC(CO)O
INCHIKEY: VXXKDWBEVHGANN-XJWQLZQYSA-N
PRECURSORTYPE: [M+FA-H]-
PRECURSORINTENSITY: 104444515.7578
IONMODE: negative
CHARGE: -1
PARENTMASS: 360.14203134799993
NUM PEAKS: 15
78.2122345  0.02111917000703557
87.80451202 0.018346465853495825
91.01448822 0.01823802461533425
91.5243454  0.018015277233289183
109.0279999 0.08515877853683607
111.6686401 0.0225705894004405
120.3650894 0.01914997402326124
121.0282669 0.25592785935612483
122.0359497 1.0
135.0437927 0.038232239431150346
165.0545502 0.22860693439170934
197.0814972 0.16176902749143512
220.7532959 0.04303562938912429
309.5471497 0.020378049249096464
333.3588867 0.020258635843647673


