PRECURSORMZ: 329.08780615599994
COMPOUNDNAME: casmi2022challengepriority161
FORMULA: C14H18O9
SMILES: COC(=O)C1=C(C(=CC=C1)OC2C(C(C(C(O2)CO)O)O)O)O
INCHIKEY: VSTYNZNDJYVPKL-CTYVSURLSA-N
PRECURSORTYPE: [M-H]-
PRECURSORINTENSITY: 134150357.4063
IONMODE: negative
CHARGE: -1
PARENTMASS: 330.09508215599993
NUM PEAKS: 17
55.1531868  0.0006238068511088023
91.01096344 0.0010435872523589045
91.01746368 0.02791944212229534
94.43727875 0.0006410658991641545
134.9773865 0.0006520783812040327
135.0073853 0.12345328318108238
147.2472534 0.000795662220712677
166.9817047 0.0009455798050840484
166.9920654 0.008237209760232954
166.9989624 0.007881618504625832
167.0337219 1.0
167.0606689 0.00828773956558129
167.0667267 0.009347302098377223
167.0828705 0.002708489945659931
189.7798157 0.0006851049821082198
216.6018982 0.001484721813305073
216.625824  0.0014609410366525659


