PRECURSORMZ: 347.12778505599994
COMPOUNDNAME: casmi2022challengepriority20
FORMULA: C22H18O4
SMILES: CC1=C(C=C(C=C1)C2(C3=CC=CC=C3C(=O)O2)C4=CC(=C(C=C4)C)O)O
INCHIKEY: VCSUYXUJFRFUEL-UHFFFAOYSA-N
PRECURSORTYPE: [M+H]+
PRECURSORINTENSITY: 22689593.91504
IONMODE: positive
CHARGE: 1
PARENTMASS: 346.12050905599995
NUM PEAKS: 58
52.76668549 0.0014423487712868503
52.76960373 0.0012095490266453364
55.37383652 0.0006719283359099214
59.76485443 0.009390897464003001
59.7687149  0.007684135225626239
62.93975067 0.0006548217671628815
66.01292419 0.0006344502277641366
86.1071701  0.0006719944235507199
91.05419159 0.022233852069048165
99.7232666  0.0006667760083628743
105.0335159 0.022587518390463475
109.0643234 0.00369934570850656
112.5337067 0.0008139387609359881
119.0602341 0.0037470943666646447
133.0283661 0.01106669479655099
135.0444031 0.004701112008666388
139.0552063 0.0007964296846890179
141.0699463 0.0010421634077457294
152.061676  0.004897808509286714
153.0697784 0.002894798435481828
155.085144  0.013846512700336511
165.0697632 0.02278518623468622
165.409317  0.0007184429882727427
166.0780029 0.0012389146115665394
167.0852051 0.01037988424751835
168.0579681 0.000747803459843645
169.0642242 0.0011413408891109882
170.6785278 0.0006626308661095817
183.0433197 0.0009992445501518757
183.0802917 0.0348043442147445
187.4851837 0.0006689884489161828
193.0643921 0.02042558307352214
194.072876  0.004235562495146755
195.0807648 0.005456500882500202
197.0594025 0.011103548738284785
210.0684662 0.002373759230303532
211.075119  0.1859318215183538
220.0842743 0.001271950617227779
221.0594482 0.020647972519322582
224.0464325 0.0013850448050509708
233.940094  0.0008747577213581103
237.0541229 0.0034509418518045773
238.9911652 0.0012806235347028983
239.01297   0.006608619749283103
239.023941  0.005167889498087056
239.0699921 1.0
239.1152954 0.006810608278040097
239.1280365 0.007865823174779843
239.1421204 0.004380487192175848
241.9538116 0.000826391119638881
256.3828125 0.0007058748556005309
258.5567017 0.000686885946830152
286.0970459 0.0010542757768921135
301.1225281 0.0011204676142727978
311.1068726 0.0012786592363571213
314.0936584 0.013022367209788804
329.1157532 0.0028104009484722233
347.1294861 0.006945466428438621


