PRECURSORMZ: 424.1965977919999
COMPOUNDNAME: casmi2022challengepriority160
FORMULA: C21H26O8
SMILES: CC1COC2(C1(C(=O)C3=C(C2=O)C45CCCC(C4C(C3OC)OC5=O)(C)C)O)O
INCHIKEY: RQYZKRVLMHQSMS-UHFFFAOYSA-N
PRECURSORTYPE: [M+NH4]+
PRECURSORINTENSITY: 8520713.12793
IONMODE: positive
CHARGE: 1
PARENTMASS: 406.16277479199994
NUM PEAKS: 85
55.0545311  0.03494255385411645
57.07008362 0.009360984229059746
59.04928207 0.008668031742816997
65.89796448 0.004780632285151854
69.03355408 0.02070765853864
70.98796082 0.005191085668943879
78.28257751 0.010036926475744445
78.28701019 0.005954274772440432
83.00221252 0.005264420784379665
83.08545685 0.06297716143069104
85.06477356 0.020453893047461175
117.6119156 0.0054263408746457005
152.9497986 0.006275749556024003
157.0644531 0.007046424831065204
165.0534515 0.00609257942268811
169.0649719 0.0054859766814494264
171.0802307 0.0402148887995394
171.1166992 0.007925196611919386
173.0601349 0.006002236150368234
181.1011047 0.02366535338245245
183.0800781 0.010368271571887007
185.0595093 0.01286504359386485
185.0958405 0.06067209121592104
187.0744934 0.021577876777545562
187.1115265 0.03669611534321567
195.0801849 0.03057484708674567
197.0590363 0.006622312750783209
197.0961609 0.09677049579436484
199.0762634 0.03814933025537448
199.1113586 0.052274087523889935
201.0589294 0.006915655295200313
201.0910492 0.012802869528174048
209.0960236 0.02658722831684822
211.076004  0.009882935645907838
211.1117249 0.03234822313588851
211.1481934 0.009320107587271203
213.0910339 0.11880489470367016
213.1268921 0.06806562542299108
215.0707703 0.010289174738944423
215.1055908 0.022623976832268237
215.7760773 0.04235702309981993
221.1329956 0.021172907074286946
223.0755615 0.06526220048732571
223.1115112 0.006585737872056374
223.1481476 0.012438048572155495
225.0904236 0.04633116488653026
226.0968018 0.00655646016221259
227.1062164 0.11266144805221334
227.1432343 0.020147025618355897
229.0870667 0.00857020334028913
231.0648346 0.08890476108597352
231.1022034 0.01183782610258936
236.1198273 0.0069317028187209796
237.0908661 0.01972852061703931
237.125946  0.006399821733105966
239.1426697 0.020692523746981707
240.1131592 0.0075644634242132275
241.0852966 0.04660655269874891
241.1252136 0.005698414111259095
241.1585999 0.021245538245924674
241.3540344 0.006449159237852069
243.0651703 0.10960350786274399
243.1016083 0.08539878774380032
249.1266327 0.04156163325357858
251.1427612 0.0667111750753045
253.0871429 0.023726933886065005
255.0999603 0.010259000958629938
257.0798645 0.02685209862557514
257.1538086 0.021978472865490786
261.0758362 0.0113440813805016
267.1367493 0.13213509103017984
269.1531372 0.08844462343222136
271.0966492 0.026186492689747758
277.1229248 0.022465316647416095
285.1479492 0.10176194883366593
289.1824341 0.006291566423403684
295.1326904 0.11367875097410826
304.2515869 0.006280853148559832
311.1255188 0.007835863436469293
313.1431274 1.0
333.1696167 0.009538302048571529
343.1541138 0.0890863202710022
347.1517639 0.00653311234579804
389.1607056 0.05326347428404167
407.1712341 0.030750124927114743


