PRECURSORMZ: 377.181703236
COMPOUNDNAME: casmi2022challengepriority109
FORMULA: C16H28O7
SMILES: CC1(C2CC(C1(CC2OC3C(C(C(C(O3)CO)O)O)O)C)O)C
INCHIKEY: YBNGMZMKEPSDPI-LGZJULIWSA-N
PRECURSORTYPE: [M+FA-H]-
PRECURSORINTENSITY: 156901662.6758
IONMODE: negative
CHARGE: -1
PARENTMASS: 332.183502236
NUM PEAKS: 14
53.7695694  0.22574805871963008
57.94683075 0.24276179074095058
59.0123558  0.5584169060859684
61.54207611 0.26234739672183627
64.0346756  0.22436264253156624
71.01256561 0.4027288545586859
85.02801514 1.0
93.80032349 0.2776907740558629
101.0226517 0.2792363102529219
104.7663574 0.23598762129339107
116.8068008 0.28000480882139145
121.4054871 0.29894825053353125
132.1291962 0.2834059484675974
398.5723572 0.2600369830567531


