PRECURSORMZ: 282.169984216
COMPOUNDNAME: casmi2022challengepriority177
FORMULA: C15H23NO4
SMILES: C1=CC(=O)N(C1=O)CCCCCCCCCCC(=O)O
INCHIKEY: UVZTZBRGZXIBLZ-UHFFFAOYSA-N
PRECURSORTYPE: [M+H]+
PRECURSORINTENSITY: 354728.1689453
IONMODE: positive
CHARGE: 1
PARENTMASS: 281.162708216
NUM PEAKS: 38
53.0387764  0.023200920029185373
55.01789856 0.06366974749717241
55.0514946  0.03236881994034149
55.05447388 1.0
57.07010269 0.1434267418880824
58.25580597 0.013206218973306814
67.05431366 0.14892240755418887
69.06989288 0.6397886897553887
70.02853394 0.08207848572305765
70.5983963  0.013770414152524519
70.79320526 0.014400574183038752
71.08532715 0.018046301443840194
71.53338623 0.013750411676097701
72.63047028 0.01369410563667253
73.06453705 0.02014268010593576
78.42761993 0.016428862561495474
79.05413818 0.12135683854774433
80.01315308 0.10646117798840916
81.06987    0.16755573923623088
82.02877045 0.10974339340771891
83.04914093 0.022912372481067395
83.08551025 0.40061583482357277
91.05397797 0.01749974440660745
93.0699234  0.11548735161822471
95.08517456 0.07019081282674162
97.06443787 0.057755385197335425
97.10076141 0.07022782035459137
98.02362061 0.3029176431710338
105.0698395 0.02071750244686699
107.085289  0.0671562911039025
110.0150833 0.028927174001458354
110.0235825 0.9365264006823707
111.0794144 0.017317893721362165
121.1006165 0.01866233439688758
124.039093  0.03199081948287264
153.7002411 0.013970607740947702
219.1792755 0.02482827653400918
236.576416  0.015934144094432008


