PRECURSORMZ: 371.1711418559999
COMPOUNDNAME: casmi2022challengepriority173
FORMULA: C18H28O8
SMILES: CCC=CCC1(CCC=CC1C(=O)O)OC2C(C(C(C(O2)CO)O)O)O
INCHIKEY: OQWLWGHVEYZMLN-GHLGXFJJSA-N
PRECURSORTYPE: [M-H]-
PRECURSORINTENSITY: 45410271.51563
IONMODE: negative
CHARGE: -1
PARENTMASS: 372.1784178559999
NUM PEAKS: 29
55.01770401 0.007410850684693949
57.03327942 0.010125638029012821
58.00471878 0.020759129610489407
59.00523758 0.01614978230918025
59.0124855  1.0
59.02177048 0.013038503415686973
64.20965576 0.001926682966661322
71.00295258 0.008321725144669355
71.01245117 0.4899794446894487
71.0243454  0.003833507961901386
72.99182892 0.02163803430706021
73.02813721 0.012046993210052868
83.01235962 0.01929330543700309
85.02210236 0.002210168736673522
85.02809143 0.11124367582392757
87.00736237 0.010281487957142914
89.01391602 0.003007317312518304
89.02301025 0.2333003838103825
89.02788544 0.0047055688022001
95.01239777 0.048356098480460644
101.0230331 0.12331774940282446
109.4038086 0.0017271908272280623
113.0138702 0.0027788193144604556
113.0230179 0.11200230126182457
119.033493  0.03571588897302202
119.0412903 0.002255967450785797
127.134613  0.0038531795218194383
166.3265839 0.00200932425612036
221.3523102 0.002393642257353308


