PRECURSORMZ: 274.23767475600005
COMPOUNDNAME: casmi2022challengepriority135
FORMULA: C15H28O3
SMILES: CC12CCC(CC1C(CCC2O)(C)O)C(C)(C)O
INCHIKEY: ODDNJYHUVXKJBI-UHFFFAOYSA-N
PRECURSORTYPE: [M+NH4]+
PRECURSORINTENSITY: 1598353.367188
IONMODE: positive
CHARGE: 1
PARENTMASS: 256.20385175600006
NUM PEAKS: 32
55.93458557 0.2665901964524475
61.01081467 0.5869805101797341
62.01873779 0.06469299694947113
62.98702621 0.04174572728897786
71.92941284 0.06779655842635111
72.93715668 0.3506700762818209
79.02122498 0.19648693564522318
81.06964111 0.09217360421253629
87.90642548 0.09348962268085456
90.94776917 0.7162561933352978
95.08571625 0.05419661683587501
105.0698166 0.19873417163800924
105.9170303 0.17709628774769637
105.9340897 0.04108414769762575
106.9248734 0.044759574045751774
108.9581223 0.07166566240875082
117.9169617 0.07489514069828086
118.9247589 1.0
121.1015015 0.050140372961031195
124.9355698 0.16375828788154678
133.1018066 0.07990859163918158
135.9273224 0.07571330324205856
136.9354706 0.4620295930955065
142.8219604 0.046021415192355544
147.116745  0.3346435404755822
151.9586792 0.09062513270144186
161.1326447 0.06474561698772914
196.1692047 0.09555414374516437
203.1795654 0.1793395545667945
220.1098633 0.0602949435993708
283.030304  0.04388353563205181
516.5668335 0.044679184035125025


