PRECURSORMZ: 375.0721560919999
COMPOUNDNAME: casmi2022challengepriority246
FORMULA: C18H16O9
SMILES: CC1=CC(=C(C(=C1C(=O)O)OC2=C(C(=CC(=C2C)OC)C(=O)O)O)C=O)O
INCHIKEY: WBPAMTGAAPNFPT-UHFFFAOYSA-N
PRECURSORTYPE: [M-H]-
PRECURSORINTENSITY: 59011058.58008
IONMODE: negative
CHARGE: -1
PARENTMASS: 376.0794320919999
NUM PEAKS: 55
56.25810623 0.001849667264264125
57.34087372 0.0017432637963206994
65.03824615 0.004569758090473454
65.2117157  0.0019702585032182153
66.12275696 0.0019271237616072469
67.01747131 0.004017121725791827
68.99681854 0.023845515962469158
75.92527771 0.001960942319038512
79.05393982 0.05710631728209732
81.03317261 0.04760480646125063
95.18450928 0.0017050751996268271
105.0331345 0.07359945953168005
105.0412598 0.002504746164173001
109.0194168 0.005002286330589379
109.0280685 0.20383014671816413
109.034317  0.0038109394546874185
109.0368423 0.003937747902610055
110.1075058 0.0020343707538757264
120.0198975 0.00471389785439634
121.0283432 0.003669954515759768
122.0358353 0.044937522018571034
123.022049  0.0034342480679122106
123.0437241 0.4344637878407763
123.0706329 0.0035533731812537072
135.0435944 0.007655272678300596
136.0153656 0.007604992465792596
136.9854736 0.0026413151184491715
136.9975891 0.013999755876466959
137.0230713 1.0
137.0556793 0.0112154477029621
138.013092  0.0026150384828452704
138.0309296 0.19817898934248337
149.0090332 0.0033582700766756897
149.0230408 0.09797418053587198
150.0309448 0.002399008216563008
151.0387878 0.3405226506211121
151.0758209 0.002849608676465016
153.0177307 0.008615565971125158
182.0016785 0.003129759447067461
182.0209503 0.19250098005091054
182.0396118 0.0036631744069970072
195.0290527 0.002821200945159267
198.0681    0.003161912415371565
199.0748444 0.003069578966184687
210.0675964 0.003479723273134801
220.7736816 0.002643670713775691
226.0626831 0.040296238787872474
227.0712433 0.00899911532621433
229.0491486 0.003137319802074792
243.0654144 0.01280379685386402
244.0736389 0.0945761454129321
254.057251  0.003871177986330984
255.0658875 0.03694028633967501
260.4710999 0.0018968590937614108
271.0610657 0.002338273914914959


