PRECURSORMZ: 140.10699003599998
COMPOUNDNAME: casmi2022challengepriority212
FORMULA: C8H13NO
SMILES: C1CC1N2CCC(=O)CC2
INCHIKEY: DTUJRJIWGWTNFQ-UHFFFAOYSA-N
PRECURSORTYPE: [M+H]+
PRECURSORINTENSITY: 44044413.39844
IONMODE: positive
CHARGE: 1
PARENTMASS: 139.099714036
NUM PEAKS: 52
53.00253296 0.004460205285866477
53.03887177 0.11491226134903038
53.50032425 0.002235399048186437
55.01812744 0.02052482589731469
55.05448532 0.030706832700539335
56.0430069  0.004242707498293729
56.04971695 0.542182571989257
56.0580864  0.003346736944857598
57.0574913  0.0036034601184651437
67.05429077 0.0343907561166392
68.04955292 0.09924504371766658
69.03343201 0.04729782870715368
69.06973267 0.004486443342258028
70.05586243 0.014026525648079406
70.06515503 1.0
70.07717896 0.009804755282963417
71.04566956 0.0027919035933415583
71.0491333  0.19873900176577805
72.04446411 0.0025607274540463635
79.05418396 0.014569432713007459
80.04942322 0.017527943333525715
81.05730438 0.003919817887584927
81.06982422 0.01522469061583866
82.06524658 0.022304530107805337
83.04898071 0.004667214627823559
83.07278442 0.003222377141686831
84.08084106 0.022438117167880304
91.0541687  0.012915996466362026
93.06996155 0.020275488685754312
94.0651474  0.04249461849444029
95.04953003 0.0030898825244935636
95.08538055 0.016796250572660546
96.07494354 0.0025587083774382905
96.08071136 0.14867284147310325
97.06482697 0.043761971511373926
98.05252838 0.004329155512484492
98.06000519 0.2776703041285804
98.0963974  0.009947500249246852
99.06784821 0.010194171864032198
100.0757751 0.010200390385051111
105.0692978 0.003999254930461285
107.0727386 0.00969693867035421
110.0963974 0.013108162500446736
112.0755768 0.03694809894047534
112.1122284 0.00511101164208337
120.0807648 0.009471380389211394
122.085968  0.0044253803934908055
122.096283  0.17953415589806532
128.4149017 0.002254093917500703
140.080658  0.012088279873738832
140.1068268 0.9546612457693093
140.1399536 0.003976141947441414


