PRECURSORMZ: 169.122305752
COMPOUNDNAME: casmi2022challengepriority183
FORMULA: C10H16O2
SMILES: CC1=CC(C(CC1=O)C(C)C)O
INCHIKEY: ZFUJCNJIGDBFEP-UHFFFAOYSA-N
PRECURSORTYPE: [M+H]+
PRECURSORINTENSITY: 7577470.953125
IONMODE: positive
CHARGE: 1
PARENTMASS: 168.115029752
NUM PEAKS: 54
52.40283203 0.0038902825643775964
53.03866959 0.005654356936476912
55.05444717 0.02174171417596081
57.01802063 0.0041515510050432435
57.0700531  0.030166097132383607
59.04933548 0.02897652342495405
66.00174713 0.004447658540011251
67.05046082 0.005855438588713206
67.05437469 0.09757684777765392
67.12484741 0.004333731180102237
69.03353119 0.02548108581866417
69.06993866 0.18839235475574612
71.04918671 0.24238791430933948
73.06479645 0.021212600960601558
79.05400085 0.018667834219044232
81.06475067 0.009079175469678494
81.06993866 0.23440134377979485
83.08548737 0.00579897122655582
85.06484222 0.03606543791352391
89.05970001 0.019941067293777363
91.05419159 0.030434227031055052
93.06990814 0.048751226176036014
95.04911804 0.1757128791430303
95.08556366 0.1277243361962876
97.06482697 0.1252686878249339
97.10133362 0.01778780904225692
99.04419708 0.06755514708781575
100.0096588 0.010018389131322079
101.0596313 0.019161750764567956
105.0698929 0.022383376693075545
107.0490952 0.0333907670119485
107.085495  0.21400198244804197
109.0151215 0.009035776495196747
109.0424881 0.006478298202195241
109.0647659 1.0
109.10112   0.2800565247516751
109.1097717 0.007075772170735865
111.0808792 0.016127653118781785
113.0597305 0.1192054527541259
119.0604477 0.010638039190191677
121.1011429 0.009397087965580302
122.4992905 0.0048279823828099346
123.0804749 0.05326016936732944
123.116745  0.3923695181201517
125.0959473 0.04738320280934287
127.0754471 0.02795154190788796
130.0115967 0.009100485098550519
131.5051117 0.008116938970957907
133.1012573 0.06185730837507963
139.0176239 0.015567293075519297
151.1116791 0.16112314286653381
159.0082855 0.005523599129562582
169.0976715 0.006984433924307807
169.1221161 0.19931512362952017


