PRECURSORMZ: 792.6583507360001
COMPOUNDNAME: casmi2022challengepriority175
FORMULA: C14H8I4O4
SMILES: C1=C(C=C(C(=C1I)OC2=CC(=C(C(=C2)I)O)I)I)CC(=O)O
INCHIKEY: PPJYSSNKSXAVDB-UHFFFAOYSA-N
PRECURSORTYPE: [M+FA-H]-
PRECURSORINTENSITY: 18314412.67188
IONMODE: negative
CHARGE: -1
PARENTMASS: 747.6601497360001
NUM PEAKS: 31
111.0436935 0.006798658268692403
112.0468521 0.0013306507735428713
112.0757065 0.00231935904072806
125.0956955 0.006525506127194887
126.8732986 0.006309084711028041
126.9036026 1.0
126.9267883 0.014000173196528607
127.2553177 0.001488444888224768
128.0702057 0.034811653740491916
129.0738068 0.009880201690864737
131.0232697 0.0022039096812786845
137.0233459 0.001508884051385361
167.0575409 0.053209718344079275
168.065094  0.06317558965259729
169.0693054 0.017008867353030088
170.0708008 0.003412150664814209
178.1224823 0.0015282028675715962
198.6693573 0.0016950048351221342
204.1018219 0.007761075602484577
205.1053925 0.0019556408703355803
304.2768555 0.0020089724503756573
328.7410583 0.0014934901814802352
352.1168823 0.0015724676704632163
359.8158569 0.002415554891734697
375.2522278 0.0023136070489428603
405.1540833 0.0014960937507856572
447.8457947 0.0030528918839211874
459.2960205 0.0017068244564183532
491.3214722 0.0032973594895707985
492.328125  0.002479364387218664
990.6192017 0.0018401822794156743


