PRECURSORMZ: 959.485715528
COMPOUNDNAME: casmi2022challengepriority1
FORMULA: C46H74O18
SMILES: CC1(C2CCC3(C(C2(CCC1OC4C(C(C(CO4)OC5C(C(C(C(O5)CO)O)O)O)O)OC6C(C(C(C(O6)CO)O)O)O)C)CC=C7C3(CCC8(C7CC(CC8)(C)O)C(=O)O)C)C)C
INCHIKEY: ZKCHQVRAXCCTLE-YXHZOQBQSA-N
PRECURSORTYPE: [M+FA-H]-
PRECURSORINTENSITY: 10468124.13281
IONMODE: negative
CHARGE: -1
PARENTMASS: 914.487514528
NUM PEAKS: 23
71.01252747 0.3640674952527011
73.02812958 0.07282814980112244
85.0280304  0.24817860648631523
89.02291107 0.20718142197359007
89.25951385 0.03652943600949837
101.0229797 0.3069204170052344
110.3771133 0.03458131846465008
113.0228729 0.33319434138876547
119.0332718 0.11327749767458611
161.0446472 0.16973029609106288
199.7001648 0.04082706914059145
221.0661163 0.03794574720298006
275.0784912 0.1910670847450277
304.286377  0.15903486228147448
365.5905151 0.03785831219237238
377.1240234 0.042955424636561525
457.331543  0.28705728474715925
485.3275757 0.07269223115146899
571.3665161 0.04616786309256709
589.3713379 0.6794137935723392
733.4205322 0.14595819914657035
751.4283447 1.0
913.4783936 0.40977397822361533


