PRECURSORMZ: 419.09727277599984
COMPOUNDNAME: casmi2022challengepriority47
FORMULA: C20H18O10
SMILES: COC1=C2C(=C(C(=C1)C(=O)OC)C3=C4C(=C(C=C3C(=O)OC)OC)OCO4)OCO2
INCHIKEY: JMZOMFYRADAWOG-UHFFFAOYSA-N
PRECURSORTYPE: [M+H]+
PRECURSORINTENSITY: 5554611.875
IONMODE: positive
CHARGE: 1
PARENTMASS: 418.08999677599985
NUM PEAKS: 42
50.44746017 0.008484616661276761
56.30831909 0.0077053495377045365
56.56778336 0.00825826248601748
61.16898727 0.006860106488519906
72.70665741 0.008256736443599887
72.85106659 0.007012119737031209
82.01101685 0.008826307119850501
82.01582336 0.007532124525446655
87.19312286 0.006781268743143575
113.6836624 0.006971369059194336
119.6721878 0.00722955556079686
165.1423492 0.0072912808522262425
183.6806335 0.008683791170350794
197.0592651 0.0075891075666602165
199.0741272 0.010887749511473617
215.7520447 0.02484369651699391
215.7762451 0.0277823979814068
227.0322113 0.009411635859170283
227.0713806 0.03472114647231874
242.0570831 0.009550961950888608
255.0281219 0.04329858295088969
255.0588837 0.01961883896247609
257.0448914 0.007989303344576726
270.052124  0.05276393068486772
283.0227356 0.04900014845147906
283.055481  0.009854797222073467
285.0418091 0.01995617188108309
285.0752563 0.04314970083726442
298.0462036 0.01476201586074698
301.0340271 0.011277051439473426
304.2552185 0.013116226919914797
312.026062  0.025385031267803577
313.0336914 0.732680998056495
314.0412598 0.009872333534866294
328.0572815 1.0
340.0209961 0.09497239385502425
343.0808411 0.1679701503151932
344.0150757 0.012838618197154511
355.0443115 0.20098196967407553
357.061676  0.053449272043285964
372.046875  0.011454423191561442
372.6069641 0.007269039179241116


