PRECURSORMZ: 500.9258822
COMPOUNDNAME: casmi2022challengepriority238
FORMULA: C8F18O2S
SMILES: C(C(C(C(C(F)(F)S(=O)(=O)F)(F)F)(F)F)(F)F)(C(C(C(F)(F)F)(F)F)(F)F)(F)F
INCHIKEY: BHFJBHMTEDLICO-UHFFFAOYSA-N
PRECURSORTYPE: [M-H]-
PRECURSORINTENSITY: 205866946.75
IONMODE: negative
CHARGE: -1
PARENTMASS: 501.9331582
NUM PEAKS: 22
50.74730301 0.005409565961326723
55.65785217 0.03341328337029896
70.65116882 0.006526023938594381
73.75138855 0.006133439417519861
79.95585632 0.01209427251069258
80.95510101 0.008282760443792309
81.95168304 0.26656211183575973
81.9601593  0.03975998338844119
84.95515442 0.039160649377961404
98.95410156 0.011550485669959719
100.9502106 0.2022096059986097
100.9581757 0.03579472691309698
118.9909439 0.01576905671183203
168.9064636 0.006904092298558923
168.9883423 0.06450425992271744
196.7033691 0.0065388854857019035
218.9850769 0.007833009008932924
221.1881104 0.010161764719074219
262.9176636 0.006937270727932142
496.8690491 0.007214018594338838
500.9271545 1.0
501.0144653 0.012021309502982615


