PRECURSORMZ: 249.149618564
COMPOUNDNAME: casmi2022challengepriority45
FORMULA: C15H22O3
SMILES: CC1(C2C1C=C(CCC(C(=C)CC2)O)C(=O)O)C
INCHIKEY: UFUCTYSVQPEEFA-AVGNSLFASA-N
PRECURSORTYPE: [M-H]-
PRECURSORINTENSITY: 1172408.667969
IONMODE: negative
CHARGE: -1
PARENTMASS: 250.156894564
NUM PEAKS: 12
56.4865799  0.020908373545653978
65.28791046 0.023171390273979946
75.41771698 0.020850206423248082
83.04892731 0.2293680124390113
97.07064819 0.021635642860972738
112.9842682 0.5735460833199292
136.9083557 0.04646544421210659
190.4460449 0.02123930352259905
205.1588898 0.13261124872660984
218.3869476 0.05058836523510804
249.1490326 1.0
503.4942627 0.025137333118867622


