PRECURSORMZ: 333.20603537599993
COMPOUNDNAME: casmi2022challengepriority112
FORMULA: C20H28O4
SMILES: CC1=CC(=O)OC1CC=C(C)CCC=C(CCC=C(C)C)C(=O)O
INCHIKEY: ZNBQWPMZFPFCKS-GOSISDBHSA-N
PRECURSORTYPE: [M+H]+
PRECURSORINTENSITY: 92554976.19531
IONMODE: positive
CHARGE: 1
PARENTMASS: 332.19875937599994
NUM PEAKS: 132
53.03911972 0.011005222594939341
53.43289185 0.00879763543950221
55.01811981 0.018406314088770578
55.05467606 0.07276922270271403
57.0700531  0.018031888649013346
58.86085892 0.009493048698021464
58.87860107 0.009769889303968108
67.05431366 0.1388498541470398
69.03353882 0.1163942282713374
69.06994629 0.17515972557824003
71.47345734 0.010351688922465822
79.05421448 0.15109545535784105
81.06983185 0.38255691291815863
83.04917145 0.045189041404209464
83.08550262 0.043130393429987354
83.87077332 0.010165209481823326
91.05428314 0.16472466768413307
93.06984711 0.6306934478386916
95.04931641 0.08262501149437937
95.08548737 0.35022564432279246
97.02817535 0.08151668348981739
97.06481934 0.06449705913195505
101.8035049 0.009434218539870445
105.0697784 0.31012232347622626
107.0490265 0.05538532969054538
107.0854492 0.36581382163537957
109.0647812 0.15607508768796155
109.1011581 0.13191527787933277
111.0439529 1.0
111.0529175 0.014291218804730573
113.0600815 0.01228271489516015
117.0698166 0.0605557568137464
119.0854797 0.32613342516844224
121.0649185 0.27044372589950066
121.1010513 0.31458745997866094
123.0442963 0.022087946274239118
123.0802841 0.23782225398615553
123.1165314 0.011083719847822353
125.0595016 0.06928082406314062
125.0960159 0.05408512888148922
129.0698395 0.06672632721326192
131.0853882 0.2251286762041004
133.0645905 0.08164847865209368
133.1009979 0.24529529364819275
135.080368  0.40490296521655306
135.116684  0.058678780216990606
137.0594482 0.015926709271088628
137.0959167 0.2683581772416897
137.106842  0.015578620708337359
143.0853729 0.16408177606758578
145.064621  0.05297609322526307
145.1010437 0.35093263463026614
145.1139679 0.012792310069732391
146.0737762 0.012146417547179334
147.0802307 0.3110640425020616
147.1165161 0.16777684206093138
149.0861816 0.011065063802138585
149.0959473 0.4359871796269123
150.1041107 0.020964997326531693
151.0748138 0.08810876296563347
151.1112823 0.017670326596983303
151.8154602 0.009732840101887024
155.0851898 0.04888513580721653
156.094223  0.01700782740780661
157.1008453 0.10404417238405121
158.0724487 0.01700906414482717
159.0801697 0.13537669977929734
159.1166687 0.09015892242666904
161.0961151 0.31402147091866467
161.132019  0.08041024696540448
163.1114197 0.08833303563463947
165.0912628 0.013859184236621363
167.0847168 0.011008663303147603
167.1062469 0.017009340261247535
169.1008453 0.019687092505072078
171.0804443 0.045871984782235344
171.1163483 0.08067837419688811
173.095871  0.23059103278625553
173.1325378 0.06150704567096541
175.0738525 0.01097909073850898
175.1115875 0.13776065257811126
175.1483917 0.05536914298542338
177.0908356 0.12187712659245434
177.1268311 0.01707941927009289
181.1011505 0.03981200644933886
182.1096039 0.013878866211879004
183.1166077 0.05322589756949827
185.0960541 0.0530476917011163
185.1327515 0.12543547692970922
187.0748291 0.05183080860855736
187.1116486 0.044367590093448116
187.1474609 0.02068848739893279
189.1273499 0.10189014024042274
189.1626129 0.022970396166416815
190.1369476 0.013606871697118527
191.10672   0.03324586207633622
191.1433868 0.014641107911085301
194.1057281 0.009687112246569436
195.1172028 0.058680830422746605
197.0961914 0.017640324150492614
197.1328278 0.041157692065127024
198.1027374 0.012329972137836048
199.1116028 0.08026188481790628
199.1479645 0.05824330328728139
201.1274872 0.077224504990386
203.1431122 0.10398506032260874
205.1584015 0.023775935235084793
209.095932  0.06635686690889606
209.1318359 0.04076551085148775
211.111908  0.041450263040075784
211.1470337 0.011507260942569795
213.0913239 0.02276122557755222
213.1272888 0.049224973945191625
215.1428375 0.05402971711075799
217.1592407 0.0786691064203344
220.0356903 0.010077304429947035
220.0589447 0.014845100077024246
223.11203   0.04583075911262227
227.1066742 0.09304200773713261
227.1429596 0.02229515759389334
237.1278534 0.018976787147162236
241.1223297 0.023106514948089848
251.1785126 0.018109941966214516
255.1386414 0.014491952135552514
255.1739655 0.012568397013429562
264.1498413 0.017605237524405386
269.1897278 0.03753383434718433
279.1743469 0.04170696864142838
295.4328918 0.009751646606219017
297.1849365 0.017072643670747643
315.1947632 0.015058017251568764
322.6974792 0.010962240196603886


