PRECURSORMZ: 551.2826676079999
COMPOUNDNAME: casmi2022challengepriority230
FORMULA: C27H44O10
SMILES: CC(=CCCC(=CCCC(C)(C=C)OC1C(C(C(C(O1)CO)O)O)O)CO)CC(C=C(C)C(=O)OC)O
INCHIKEY: ZVUKZMWLRYNENB-KPPISPLZSA-N
PRECURSORTYPE: [M+Na]+
PRECURSORINTENSITY: 26602492.94336
IONMODE: positive
CHARGE: 1
PARENTMASS: 528.2934496079998
NUM PEAKS: 24
65.41867065 0.022035390373409628
65.48482513 0.014617378751426883
83.01020813 0.01774789688354771
95.01036072 0.06497816877890204
99.2156601  0.018854625139945215
112.0128174 0.025509227942827607
113.0207062 0.1089529556412505
127.2754517 0.02468999904767443
155.2550964 0.01743159548571934
157.047699  0.02192192589876016
185.0419312 0.17022967559512595
191.1043549 0.07480076655742883
201.0367432 0.3651672660208748
203.0524445 1.0
203.0694275 0.01646802573911066
203.074707  0.015122703192432023
220.0661621 0.029836696839983006
307.1407471 0.024110595174987856
337.1594238 0.01803926264721686
371.2191772 0.22352256649889565
373.2335815 0.10343470738318013
423.2374268 0.061155692041192075
430.9112244 0.018779431113322594
551.2792358 0.021721902077721275


