PRECURSORMZ: 811.4485421720001
COMPOUNDNAME: casmi2022challengepriority143
FORMULA: C41H66O13
SMILES: CC1(C2CCC3(C(C2(CCC1OC4C(C(C(CO4)O)O)O)C)CC=C5C3(CCC6(C5CC(CC6)(C)CO)C(=O)OC7C(C(C(C(O7)CO)O)O)O)C)C)C
INCHIKEY: JUQZBNSNCFPQEN-QEONLWONSA-N
PRECURSORTYPE: [M+FA-H]-
PRECURSORINTENSITY: 42707690.48047
IONMODE: negative
CHARGE: -1
PARENTMASS: 766.4503411720001
NUM PEAKS: 25
59.01250839 0.19735250503544638
67.04234314 0.0293673873566682
67.04673767 0.010228151936664457
71.01250458 0.09038065199118202
74.01076508 0.003978640736761138
83.01235199 0.004859726762604539
85.02804565 0.040902068497930315
88.20600128 0.004408604232252994
89.02284241 0.04158940197135743
95.01210785 0.010641890552392431
101.0232544 0.04994462495836836
113.0225754 0.028432662799549584
119.0334702 0.007128890452278306
128.4971924 0.004465618519836455
131.0334167 0.023498619217166512
150.8427582 0.01099777419393209
150.8569489 0.008335333965077
169.7162933 0.004753093999294308
261.4338074 0.004589120771910107
270.3495178 0.004976799961441201
314.2989807 0.004383011613245999
364.0920105 0.005120511216754159
368.0413208 0.004558449340237578
603.3900146 1.0
603.6398315 0.004869080872440645


