PRECURSORMZ: 695.4340828679999
COMPOUNDNAME: casmi2022challengepriority209
FORMULA: C36H64O11
SMILES: CC(=CCCC=C(C)CCC1C(CCC(O1)C(C)(C)OC2C(C(C(C(O2)CO)O)O)O)(C)O)CCC3C(CCC(O3)C(C)(C)O)(C)O
INCHIKEY: DPYJSGIGESZKHU-DUIWHAMXSA-N
PRECURSORTYPE: [M+Na]+
PRECURSORINTENSITY: 13970243.10156
IONMODE: positive
CHARGE: 1
PARENTMASS: 672.4448648679999
NUM PEAKS: 22
76.51753998 0.026213529740154923
83.01043701 0.0260452757116193
95.0103302  0.10804270017795034
96.01824951 0.04764764575061975
97.02580261 0.03828370201376217
107.0857315 0.04161249609776228
113.0209122 0.1058062387331929
137.0575409 0.03760313925135617
141.0518951 0.028943313323361208
151.0731506 0.11728429552659533
157.046814  0.03529315444477233
169.0475311 0.2902981042744291
177.0893555 0.02858147412274989
185.0420074 0.17139749924025388
203.0312042 0.03598351749915317
203.0522919 1.0
209.1150208 0.03915137601557044
220.0072479 0.05075015095178527
273.0950317 0.10621194165059537
301.5446167 0.03028210472143133
389.2653809 0.029559174398186096
533.3806763 0.11275495156105712


