PRECURSORMZ: 652.296371404
COMPOUNDNAME: casmi2022challengepriority71
FORMULA: C32H42O13
SMILES: CC1(C2CC(=O)C3(C(C2(C=CC(=O)O1)C)CCC(C34C(O4)C(=O)O)(C)C(C5=COC=C5)OC6C(C(C(C(O6)CO)O)O)O)C)C
INCHIKEY: MXZVBPOYCKIXHN-FFTVMPBDSA-N
PRECURSORTYPE: [M+NH4]+
PRECURSORINTENSITY: 8774014.474609
IONMODE: positive
CHARGE: 1
PARENTMASS: 634.262548404
NUM PEAKS: 172
50.92332458 0.010712987721507855
60.34283447 0.009326896349641022
67.05419922 0.038262120038709956
69.03327942 0.019868235125261317
69.06983948 0.04583894752807781
79.0536499  0.013358968511212781
81.03330231 0.08864597368820194
85.02832794 0.01796208922042025
85.73139191 0.012741761836004865
86.21630859 0.010437425095894683
93.06970215 0.019514048481101
95.01274109 0.17680699552052165
95.04914856 0.20726645238915847
95.08535767 0.01361750001129934
97.02843475 0.08230169055977556
97.06492615 0.013546110525822878
105.0695496 0.08144222474626678
106.5133591 0.010362501282343653
107.0489502 0.015579370707762205
107.0855789 0.07489941486242503
109.0646896 0.05122547044928589
111.0805893 0.014524925605678722
119.0851135 0.06160744420412766
121.0647125 0.04501729836802861
121.100853  0.04775131135396456
123.0437088 0.018200281910620442
131.0851898 0.038057848357827676
133.0642242 0.12003189093857143
133.1008301 0.039036587889778575
135.0430298 0.01430335509691118
135.079895  0.06792638265279255
137.0594025 0.02415643603507357
145.0648956 0.0718091967893901
145.1004639 0.023318386410269426
147.0801392 0.06619328743594458
147.1167755 0.02036399361624145
149.0591888 0.042813733500206175
149.0963593 0.07413043573088486
151.0753021 0.015891932098646696
151.1107941 0.016762411482819067
153.0543976 0.020789934346637184
153.091156  0.024877169617580974
157.1007996 0.03963273969234896
159.0802155 0.09369478105087214
159.1161652 0.016188268755772686
159.2891388 0.01047857160538185
161.0594788 1.0
161.0953064 0.050968545163352176
163.0747223 0.054083809009220364
169.1004791 0.04272625231097756
171.0805359 0.020523805355066913
171.1159363 0.01685217224796194
173.0956573 0.06886098906949262
173.1318054 0.016749655383304748
175.0750427 0.13907808274080127
175.1109009 0.01565898834549405
177.0903473 0.03823466658699319
179.0694427 0.01231849566567882
181.1006775 0.021147721012702455
183.0802917 0.03827811977109957
183.1172943 0.012656992159625454
185.0583801 0.012514867663457633
185.0952301 0.07012373616895234
185.1330414 0.022246954525995007
187.0752716 0.13247945280928367
187.1113129 0.06157498488253575
189.0906372 0.02311634831962014
189.1261292 0.018217439496770713
191.1067352 0.015052686846129598
195.0798645 0.018486808836524423
195.1169434 0.020889179658541337
197.0956726 0.11252317809723549
197.131485  0.013807212297023313
199.0758514 0.021404204507627013
199.1114349 0.05100911110361325
199.149704  0.01261842823884511
201.0909882 0.02319995521520212
201.1257477 0.01124527280335335
203.0694733 0.0167901819072676
203.10672   0.015326456030173335
203.1404877 0.015036726530038215
205.0493317 0.023828198453914266
209.0955658 0.05918483311296995
211.0751495 0.015002968112950672
211.1116028 0.05080367007255016
213.0905151 0.04220485680269073
214.6381989 0.01254786238976715
215.0708923 0.011550331958808181
215.1069489 0.0855936938022128
217.1215973 0.02178131501389924
219.1371155 0.010640015014719182
223.0760498 0.01284193753678206
223.1110229 0.052688554169187996
225.0905762 0.06151769329305934
225.1260529 0.047669575090202886
227.1059418 0.051498195101426544
227.1429596 0.018090755514261456
228.1485901 0.01149090039280723
229.0861664 0.01599239767345037
229.1218872 0.024922846537845794
235.1111603 0.0815993512497752
237.1264801 0.06350106229551482
239.1052399 0.06410250245143097
241.0858765 0.017683570372439873
241.1218719 0.01751756699010121
243.1010284 0.06355744074074891
243.1392975 0.0165146866178304
247.1092987 0.01746914242538048
249.0926361 0.014753111483166098
249.1240845 0.018656297276565204
251.1054993 0.04624346385803994
251.1423492 0.014449653614826667
253.0851746 0.019222216778393645
253.1209869 0.04812086214270571
253.1579437 0.012380868672935308
255.1369476 0.014578599107447
257.1146851 0.013008815468237936
261.1245728 0.01457109687201734
262.1560974 0.017593584605928105
263.1062317 0.07994384044660874
263.1415405 0.021998431480967195
265.1199646 0.019017751300711733
267.1013794 0.014053757957756617
267.1348877 0.011006621077513275
269.1539917 0.037556624140159735
273.1268311 0.011679797253861332
275.1409607 0.025027716883976602
277.1207581 0.01856516515271293
277.1550598 0.01812849497747017
279.1376953 0.03911585735020939
281.1156311 0.045668968026655085
281.1513977 0.02062173022098038
283.0969543 0.012828242836666072
283.1317139 0.0180588710136854
287.140686  0.02030142516983974
289.1213074 0.024213583098123142
291.1373901 0.02379370919296355
293.1532288 0.04184024618999434
294.1595154 0.014754389228167034
295.1342773 0.014897472033085305
295.1679382 0.0195661683237804
297.1212769 0.013229627213264561
299.1292725 0.014603349258043536
299.1636047 0.013702107095448722
300.1138611 0.013470386068713982
303.1374512 0.05226246398532831
305.1517029 0.036506833445958835
307.1312866 0.043895559790793
313.120575  0.03744655084266264
313.1788635 0.013661073086646337
315.137085  0.057023479815859666
321.1484985 0.03934708977908058
323.1624451 0.03648588368344992
331.1317749 0.07104744397919198
333.1461487 0.03784524669925291
341.1747437 0.014384312888782827
345.1829834 0.01286732081166899
349.1397095 0.02384693104964778
351.1568909 0.013866745688461357
359.1271057 0.015250060674821741
359.1829834 0.053464963272944414
363.1949463 0.023015291500343028
367.1902466 0.020833660160139652
373.1786804 0.019590184345822582
375.1934204 0.017626498857295236
381.2055054 0.013556172357118725
391.1919556 0.08725723239145199
393.2037659 0.016964362529143264
409.2000122 0.25885339985543154
455.2044678 0.01460285983900719
467.4516602 0.011582202499445365
645.5339966 0.011355154767569531


