PRECURSORMZ: 550.2646773519998
COMPOUNDNAME: casmi2022challengepriority195
FORMULA: C28H36O10
SMILES: CC1CC2(C=C(C(=O)O2)C)OC34C1CC5C3(O5)C6C(CC7C(OC8C7(CC6(CC4O)O)OC(=O)C8)(C)C)O
INCHIKEY: SVLAIBOYFCQLIY-PGNWUXKFSA-N
PRECURSORTYPE: [M+NH4]+
PRECURSORINTENSITY: 37110381.13086
IONMODE: positive
CHARGE: 1
PARENTMASS: 532.2308543519998
NUM PEAKS: 188
56.09735489 0.009132326828962744
56.10025024 0.0029073867550889736
62.7743988  0.0025311040430085153
65.81720734 0.0024467830506402603
67.05422974 0.002648471675195305
69.03359985 0.022595883582995156
79.05426788 0.030860047252602
81.06991577 0.32968397870131133
81.07778168 0.003601533590826246
81.30218506 0.002638452534071874
91.05438232 0.009824173312368711
93.06998444 0.011592057228388781
95.04904175 0.0062147222795804705
95.08541107 0.017594206059727256
97.06475067 0.011000182096455677
105.0693665 0.006490291473658031
107.0851746 0.011586095064501725
109.0563354 0.005157708884904178
109.0647964 0.1807793714602745
111.043869  0.0043217870493915895
113.0233154 0.009951682959514648
117.0700607 0.0039513318537371675
119.0492859 0.0048002436371527134
119.0853119 0.011460033359210307
121.0646515 0.005356336366863183
123.04422   0.003513553997890912
123.0801926 0.03939608833550235
123.1157608 0.0024216470026744144
125.9581985 0.0029769812968451575
129.0699615 0.004575288188208562
131.0856628 0.012629675822961171
133.0648041 0.013601354409092036
135.0805206 0.014552851716944277
137.0266724 0.005270227495966107
137.0596771 1.0
137.0843353 0.011646989967439512
139.0751038 0.01104319478905061
141.0696869 0.0034729444092668716
143.085556  0.010303662982239475
145.0648651 0.016779363294944224
145.0772705 0.0025445927644953464
145.1013641 0.004610222889404602
147.080368  0.03377424130381364
149.0591125 0.0048720807334428915
149.0961456 0.004332453525844421
151.0758209 0.02121618765496317
155.0847778 0.025554230013737484
157.0651703 0.004406555867655713
157.100647  0.0053616109510286674
159.0804596 0.016085971255626132
161.0597229 0.0035709262321181787
161.0956421 0.004325129474601044
163.0753937 0.012148632890805313
165.0908813 0.0128554562819448
167.0697479 0.01051285076395707
167.0847626 0.00452206241077052
169.1016693 0.01218794909316609
170.6859589 0.002481275705720181
171.0656433 0.0029294897030937724
171.0801086 0.02083930834117534
171.1157684 0.0034071756535579904
173.0588531 0.004509775027203198
173.0962524 0.020369354879721944
175.0753326 0.030309356690342838
175.1103973 0.004022596109636646
177.0913849 0.006492189382067532
179.0857544 0.005083626237157141
181.0654602 0.003606533314355834
181.0862122 0.0047754252630058365
181.1025848 0.003737569055266945
183.0804596 0.01358257825948477
185.0965576 0.011103776299487656
187.0759277 0.010011603434403682
189.091156  0.005733771823900239
191.0697937 0.013668701258732246
193.0856628 0.005671899924122709
193.1029663 0.003902307762094498
195.0805664 0.012102900704815966
197.0956268 0.014971514984970312
197.1316986 0.0029317528079556843
199.0747681 0.004388236962844612
199.1113586 0.004901190701069779
201.0907745 0.005242338988454771
205.1029205 0.0036758324451482047
207.11763   0.004887627056512459
208.1238403 0.0027831152830514704
209.0960693 0.011366372670935435
209.1313019 0.0036820840261534322
210.102478  0.00347498467151045
211.0759277 0.005048061325904965
211.1114655 0.014717214952155548
213.0912628 0.01180463581421276
213.1265259 0.0038500174527084895
215.1073303 0.00390090391781868
217.0997925 0.0038833723474458737
219.1185455 0.007463856836770773
221.0966949 0.01674446198803105
221.133728  0.0031969691321470477
221.1596222 0.003231856952907504
222.1037598 0.003766540736312265
223.1120605 0.013949109626902495
225.0910492 0.0064093540071550655
225.1287537 0.005917984963352463
227.1073914 0.010807915797250794
228.1151276 0.003546528069364141
233.0947723 0.004137552931479661
235.112915  0.03079793388647144
235.1496582 0.0033672876811360703
236.1193542 0.022198135411207128
237.0922394 0.014419219784606259
237.1266022 0.027353781128814716
238.0987244 0.006021188282022223
239.1070099 0.02065546510762563
239.1425629 0.00571688544819772
241.1238403 0.004278837720307735
245.0970764 0.010551402322866586
245.1317749 0.011277194522937564
246.1047211 0.013894233401253538
247.1125183 0.016069727933934696
248.1180115 0.0031753760891536573
249.0921173 0.004249721758835205
249.1266174 0.003742702355927997
251.1061401 0.009954899085833732
252.1153259 0.0036242202965834722
253.1234131 0.02656465881194773
254.1303101 0.022561120990795425
255.1378632 0.0065735729619390395
257.1176453 0.006041466318094788
260.1191711 0.004093645443356654
261.1276855 0.0040144474764854925
262.1348572 0.003639421973528547
263.1065979 0.029097705931274004
263.1429443 0.016706586021151822
264.1150818 0.04680204976094762
264.1463013 0.00496368082321216
265.1219788 0.03172324665150217
265.1525269 0.0034149334023468366
273.1270447 0.014605886975717294
273.1604309 0.003355241335789991
275.1438599 0.003533171854679129
279.1388855 0.010395320013542392
281.1175842 0.052692215574145475
281.1542664 0.014637464267089817
282.1242676 0.03312761153567175
283.1346436 0.019065179694259346
285.1291504 0.0036911779743887016
287.1412964 0.0045832407369808354
291.1381836 0.016233204079990862
295.1350403 0.0038942605961874814
299.1297607 0.004709128620748619
301.1553955 0.003689255234332967
306.1243896 0.004785293273592752
307.1306152 0.003575391433056019
307.1691589 0.0037972801736902754
309.1486816 0.018509944084475767
313.1610413 0.006419410395747803
317.1899109 0.00357678778502485
324.1333008 0.004864188551258919
327.172821  0.015456559237224436
329.1530762 0.0038203911580926755
331.1710205 0.003746364595615623
333.1060791 0.0031681971746011536
337.1566772 0.004218537064352228
340.1434021 0.002832720777721384
345.1851196 0.011107559272351797
347.1650085 0.005393448974686599
349.1832581 0.003435953390883546
351.1615906 0.004872975528970964
355.1702576 0.02345226712313603
357.1480103 0.004552072739639336
359.163269  0.003664850007403642
365.1713867 0.004127029022926713
373.1809692 0.028291078160075984
375.1565247 0.0203888297404784
383.1668091 0.012263850873065611
391.1901245 0.032343065091821055
393.1690674 0.018013381373423898
401.1739197 0.03240688756022342
419.1851501 0.06660927097081502
437.1963501 0.033193845242549765
443.1852722 0.004052388091271338
455.2079468 0.005067854288612356
461.1929932 0.002959517157235853
473.2201233 0.0030553180765370055
477.2242432 0.0025171358138702765
497.7951355 0.0029148362489590574
542.2722778 0.0028145084777363993
557.2155151 0.0030990374007199956


