PRECURSORMZ: 636.4469988159999
COMPOUNDNAME: casmi2022challengepriority99
FORMULA: C36H58O8
SMILES: CC(CCC(C(C)(C)O)O)C1CCC2(C1(CCC3=C2CCC4C3(CC(C(=O)C4(C)C)OC(=O)CC(C)(CC(=O)O)O)C)C)C
INCHIKEY: FNHDSKHVYPYDAZ-QXBAYVDYSA-N
PRECURSORTYPE: [M+NH4]+
PRECURSORINTENSITY: 2322348.679199
IONMODE: positive
CHARGE: 1
PARENTMASS: 618.4131758159999
NUM PEAKS: 41
51.95868683 0.07554191004411673
53.03884125 0.10418307524689159
55.05448914 0.14684727413045176
57.07004166 0.1020480674106835
59.04913712 0.07383583870355892
67.05422974 0.28447827711953727
69.06999969 0.2711620543463292
72.8497467  0.06835664433702092
79.05417633 0.12838189363713695
81.06984711 0.5322128700121158
91.05435944 0.15077362529904373
93.06978607 0.5701595947138363
95.08551788 0.8246753286119733
99.04413605 0.13293815746518242
101.0594177 0.07602828183308412
105.0698013 0.4958813305881263
107.0855408 0.819432834593327
109.1012421 0.33078644382084404
117.0689926 0.0733823619605402
119.0855713 1.0
121.1007156 0.4387929603363926
123.1166077 0.2783221735621689
123.2193604 0.07786760684315976
131.0851593 0.11962523114311226
133.1011963 0.5208003288266847
135.0797272 0.08393517353276601
135.1165161 0.4468819209686322
145.101181  0.30573111648804535
147.1162262 0.28142318682809864
149.1317139 0.08926894514675121
159.1165771 0.29722859648376526
165.4961853 0.07413531055398934
172.4498749 0.07415580917543997
174.8057556 0.07595291813979657
201.0138855 0.08246229137758646
201.1625061 0.07979945982659137
235.3184052 0.07664747155377313
238.1423798 0.06548913600849292
304.2359314 0.13667076319133653
304.2710571 0.0894406763580141
332.7961731 0.0779927709458021


