PRECURSORMZ: 811.4485421720001
COMPOUNDNAME: casmi2022challengepriority67
FORMULA: C41H66O13
SMILES: CC1CCC2(CCC3(C(=CCC4C3(CCC5C4(CCC(C5(C)C)OC6C(C(C(CO6)O)O)OC7C(C(C(C(O7)CO)O)O)O)C)C)C2C1(C)O)C)C(=O)O
INCHIKEY: WBDDWIKJZNNKBQ-ZQUYRLKRSA-N
PRECURSORTYPE: [M+FA-H]-
PRECURSORINTENSITY: 29037046.39453
IONMODE: negative
CHARGE: -1
PARENTMASS: 766.4503411720001
NUM PEAKS: 36
56.65697861 0.00915777230479421
59.01247406 0.2660377323060142
59.81138992 0.007879718387439139
65.04106903 0.009551783020737023
67.34980011 0.010389552886435947
71.01248932 0.3747196105361952
73.02822876 0.11384501525058538
82.32163239 0.010945799730795043
83.01208496 0.06239396657017458
85.0281601  0.17061471016010138
85.04792023 0.04001143507651124
87.00727081 0.01340349630822066
89.02303314 0.15642889026411935
95.01217651 0.03776334144548325
99.007164   0.04672636656200381
101.0230789 0.40439818491561474
113.0230865 0.19483795302684137
117.4676437 0.01033867161071793
119.0335083 0.07235380955024284
129.0183563 0.01264422601744933
131.033493  0.06631592679022856
143.0346832 0.011238480135675305
145.8480377 0.01082955712685706
159.0287933 0.019585887616312164
161.0438538 0.07036506873068486
175.1560974 0.01106047295867585
191.3547668 0.010139757310369866
191.3724823 0.011769085250213623
295.6638794 0.011262747140732794
304.3007812 0.014494858881476103
428.1917114 0.01068953843987499
471.3490906 0.04535301294554765
585.3799438 0.10599587357577084
603.390564  0.42489171434020356
765.442627  1.0
765.574646  0.01702631613357875


