PRECURSORMZ: 268.070404084
COMPOUNDNAME: casmi2022challengepriority163
FORMULA: C9H12FN3O4
SMILES: C1=CN(C(=O)N=C1N)C2C(C(C(O2)CO)O)F
INCHIKEY: NVZFZMCNALTPBY-XVFCMESISA-N
PRECURSORTYPE: [M+Na]+
PRECURSORINTENSITY: 368336.375
IONMODE: positive
CHARGE: 1
PARENTMASS: 245.08118608400002
NUM PEAKS: 9
58.74754333 0.07633445952545688
61.13056564 0.06171949985869649
80.32232666 0.0797118963525579
94.79110718 0.06523364091173743
95.11634064 0.07099279582159523
134.032486  0.2780807654590136
178.0610046 0.294046484157775
180.747757  0.06781915369869097
248.0640259 1.0


