PRECURSORMZ: 411.1063489679999
COMPOUNDNAME: casmi2022challengepriority178
FORMULA: C16H24O10
SMILES: CC1(C2CCC(C1C(=O)OC)O2)C(=O)OC3C(C(C(C(O3)CO)O)O)O
INCHIKEY: FVAIJXKCYZKCGF-FFBHLRJYSA-N
PRECURSORTYPE: [M+Cl]-
PRECURSORINTENSITY: 3932908.694336
IONMODE: negative
CHARGE: -1
PARENTMASS: 376.1369469679999
NUM PEAKS: 10
55.14282608 0.033073155382312355
56.36928177 0.028219052558371607
72.266716   0.030937156242721267
85.04333496 0.03376655164132645
115.098877  0.029874660433812903
125.0233917 0.20380930712354436
137.0231018 1.0
181.0494843 0.06600768752902719
216.5410919 0.029968366096650052
228.2859497 0.03426168427852153


