PRECURSORMZ: 859.2432959360001
COMPOUNDNAME: casmi2022challengepriority155
FORMULA: C38H48O20
SMILES: CC1C(C(C(C(O1)OC2=C(OC3=C(C2=O)C(=CC(=C3CC=C(C)C)OC4C(C(C(C(O4)CO)O)O)O)O)C5=CC=C(C=C5)O)OC6C(C(C(C(O6)CO)O)O)O)O)O
INCHIKEY: WCUYANMOZSMFCP-CFKLRSBVSA-N
PRECURSORTYPE: [M+Cl]-
PRECURSORINTENSITY: 2250600.5625
IONMODE: negative
CHARGE: -1
PARENTMASS: 824.2738939360001
NUM PEAKS: 14
61.96957397 0.04293900236455851
65.85572815 0.042820130620911404
70.43838501 0.04644412255693502
73.36761475 0.04255077344738918
74.46273804 0.047115211476453124
185.2236786 0.04729812377407099
217.0493927 0.10658306509275062
220.2253418 0.06147005709056264
227.1202545 0.04652299781727426
323.0909119 0.10655523621430447
351.0861206 0.9080751239971296
352.0944519 0.7805783288023618
353.1026306 1.0
799.5152588 0.05433162181938273


