PRECURSORMZ: 453.23973551600005
COMPOUNDNAME: casmi2022challengepriority247
FORMULA: C27H28N6O
SMILES: CCOC1=CC=C(C=C1)C2=NC3=C(N2)C=C(C=C3)C4=NC5=C(N4)C=C(C=C5)N6CCN(CC6)C
INCHIKEY: PRDFBSVERLRRMY-UHFFFAOYSA-N
PRECURSORTYPE: [M+H]+
PRECURSORINTENSITY: 524678.578125
IONMODE: positive
CHARGE: 1
PARENTMASS: 452.23245951600006
NUM PEAKS: 8
50.35807037 0.027714150815295494
50.3604393  0.015368885011905324
85.25440979 0.00936643079022641
215.4952087 0.06469425370252008
336.217041  0.008974184316099284
396.1808777 0.057249584483144884
424.1980286 0.03669225512004701
453.2390747 1.0


