PRECURSORMZ: 1111.5097409480002
COMPOUNDNAME: casmi2022challengepriority24
FORMULA: C52H84O23
SMILES: CC1(C2CCC3(C(C2(CCC1OC4C(C(C(CO4)OC5C(C(C(C(O5)CO)O)O)O)O)OC6C(C(C(C(O6)CO)O)O)O)C)CC=C7C3(CCC8(C7CC(CC8)(C)O)C(=O)OC9C(C(C(C(O9)CO)O)O)O)C)C)C
INCHIKEY: FMERKDCSVVHBLX-KCTRNYBHSA-N
PRECURSORTYPE: [M+Cl]-
PRECURSORINTENSITY: 573158.40625
IONMODE: negative
CHARGE: -1
PARENTMASS: 1076.5403389480002
NUM PEAKS: 14
81.64881134 0.06988765586729007
135.4024963 0.08984393725831863
192.8156281 0.07117390988210842
241.7392273 0.07876436575441668
275.0768738 0.07779106890124841
304.2896118 0.13165530039672824
320.3486938 0.0755095919693024
345.171936  0.07822573743482186
369.2402344 0.08049488397203199
457.3329163 0.11839656286828307
485.3224792 0.07476791832372347
589.3726807 0.53216246328631
751.4281616 1.0
913.4749756 0.8030910763332672


