PRECURSORMZ: 505.2227651239999
COMPOUNDNAME: casmi2022challengepriority33
FORMULA: C23H32N6O5S
SMILES: CCCC1=NN(C2=C1N=C(NC2=O)C3=C(C=CC(=C3)S(=O)(=O)N4CCN(CC4)CCO)OCC)C
INCHIKEY: NEYKRKVLEWKOBI-UHFFFAOYSA-N
PRECURSORTYPE: [M+H]+
PRECURSORINTENSITY: 117915662.4102
IONMODE: positive
CHARGE: 1
PARENTMASS: 504.21548912399993
NUM PEAKS: 102
50.21115875 0.0009061904036004931
54.11906052 0.0012031869838059891
54.13226318 0.00947800924384201
54.13555908 0.004613953494692955
54.89476395 0.0012804641943387075
56.04963303 0.03158778251221569
56.13343811 0.009052215909892277
56.1367836  0.004374066279203246
57.05742264 0.0066898190409550645
58.06528854 0.1045212336667116
68.04969025 0.009040930210941931
69.05736542 0.011094390559523847
70.06080627 0.0022099577512305793
70.06504822 0.055488503033940643
71.060112   0.0016246530669872467
71.07282257 0.00640386834777955
72.08060455 0.0019122617833568923
74.06008911 0.009693606128763826
75.39541626 0.0010732019597007746
82.06498718 0.011501230334626729
83.06046295 0.009042994399315796
83.0728302  0.009819601199785618
84.06814575 0.09710519985457144
84.07249451 0.0008772676627432559
84.08047485 0.007185572567166682
85.02870178 0.0011921137028170123
85.07598877 0.010772450631862019
85.08847046 0.0024110682821270966
86.05983734 0.00884059130206358
86.08367157 0.005789995743315458
88.0756073  0.03097349425416148
95.04226685 0.0010518844093198865
96.06841278 0.0011163472155592497
97.07595825 0.12604137936168144
97.08213806 0.0019984491468707003
98.08355713 0.004922855734339789
99.07624817 0.006774652775601225
99.07914734 0.003754914751713644
99.09156036 1.0
99.09738922 0.017911684863519683
99.10308838 0.008021959413795968
99.10718536 0.009933364179441292
99.11006165 0.006474012186693913
100.0756378 0.011463111411127165
100.0993423 0.09523141632999746
111.0915375 0.09279186399295423
112.0992966 0.28223618742105644
112.1184769 0.001133672593792998
112.1219559 0.0011227639826357438
113.1070786 0.031176712742550704
121.7973022 0.002995603180818788
121.8072739 0.002318981422941277
126.2994843 0.002361456904154273
126.310112  0.0023316463082517385
127.0863113 0.031639876945968905
128.09375   0.003998328901164212
129.1019592 0.22853451734329602
129.1302032 0.0013154502589858552
130.1100159 0.008144385618204584
131.1177979 0.00541307506867895
140.5555725 0.0010311219309461163
156.4396973 0.001038937855956185
193.0635529 0.005140368972080224
215.3127747 0.008504934805928094
275.6848145 0.001031448821987529
282.1098022 0.002304066560060193
283.1187744 0.053268714524363985
283.154541  0.0016715019401901542
284.1268616 0.0040546383316695765
285.1328125 0.0014991325695232357
291.1552429 0.0011407126116963426
297.1321411 0.003984979013840003
299.1138306 0.01741986810938171
304.248291  0.001904803127605334
311.1498108 0.1203906845015154
312.1581116 0.009621717646650912
313.1652832 0.015344913144438142
327.1460876 0.002157333343846084
329.160675  0.0066628199222631065
331.0841675 0.0043271059936978344
341.1044922 0.001918802664962687
344.1463928 0.002312366929635614
349.0994873 0.0013728360119136236
359.1130371 0.0013772649570159095
360.1247559 0.0012984886541628925
361.1332092 0.0014837728226265213
366.1882935 0.001286955797426087
375.1133423 0.0017441071033643676
377.1272888 0.060257370744099016
391.1427917 0.004309472548204553
393.1217651 0.004124402328091062
394.2097473 0.0016521382371527658
418.154541  0.005134356992833569
423.2476501 0.004783593723065157
444.1704407 0.0017835054318762007
445.1632385 0.0020961480947174014
459.1773682 0.0020392182446044124
461.1956787 0.04512743314674181
487.2114868 0.30546318917936294
487.2738647 0.005471541429117681
505.2218933 0.3164801469643355
505.289093  0.004022323866699367


