PRECURSORMZ: 405.2646483159999
COMPOUNDNAME: casmi2022challengepriority72
FORMULA: C24H38O5
SMILES: CC(C)C(=O)OCC1CC23CCC4C(C2CCC1C3)(CCCC4(CO)C(=O)O)C
INCHIKEY: FSQYXTHPPSJGNG-CSJFXCTJSA-N
PRECURSORTYPE: [M-H]-
PRECURSORINTENSITY: 11037356.3584
IONMODE: negative
CHARGE: -1
PARENTMASS: 406.2719243159999
NUM PEAKS: 17
56.33090591 0.002383912756027098
60.99184036 0.02072604215427759
71.20090485 0.002422415798913096
82.2559433  0.002298538905178422
87.04375458 0.04563240482669801
93.81065369 0.011448542530945847
93.81772614 0.005949079286938111
96.95848846 0.00545744454685765
186.3840637 0.0022818222475809967
217.1076355 0.010523645633069886
271.2063599 0.053818810699358725
273.2220764 0.021803254091637213
287.2019043 0.005107649878774258
317.210968  0.003830365782826361
375.1399841 0.007859585395912633
375.2536621 1.0
405.263855  0.017737727175991338


