PRECURSORMZ: 263.12888312
COMPOUNDNAME: casmi2022challengepriority59
FORMULA: C15H20O4
SMILES: CC1(CC2C=C(C3(CC3(C2C1)C)C(=O)O)C(=O)O)C
INCHIKEY: OAHIHSADYZLDCR-UHFFFAOYSA-N
PRECURSORTYPE: [M-H]-
PRECURSORINTENSITY: 36491298.88672
IONMODE: negative
CHARGE: -1
PARENTMASS: 264.13615912
NUM PEAKS: 17
54.78326416 0.012442904384458893
54.78674316 0.005608804823331203
65.78100586 0.001419786148914882
65.78421783 0.0009066615931899081
76.50577545 0.0007802213242917474
79.05413055 0.0035200871565653135
175.1480408 0.003181179880489242
218.0567322 0.0015004411813373854
218.0785675 0.0011417773763526039
218.2460175 0.0009659278444572693
219.0743713 0.007281355072208017
219.0859528 0.004679682250594299
219.1382294 1.0
219.1770325 0.0056657061332361395
219.1886444 0.010347903926211327
219.214859  0.002455442467069828
263.12854   0.16805383371311042


