PRECURSORMZ: 764.8773739799999
COMPOUNDNAME: casmi2022challengepriority213
FORMULA: C16H20I3N3O7
SMILES: CC(=O)NC1=C(C(=C(C(=C1I)C(=O)NCC(CO)O)I)C(=O)NCC(CO)O)I
INCHIKEY: BHCBLTRDEYPMFZ-UHFFFAOYSA-N
PRECURSORTYPE: [M+NH4]+
PRECURSORINTENSITY: 10591634.89453
IONMODE: positive
CHARGE: 1
PARENTMASS: 746.8435509799999
NUM PEAKS: 68
56.04951859 0.01602672396646253
56.67551804 0.0030191618102909145
56.68911743 0.0030226590673999194
57.28448486 0.0031594857082693447
57.72328568 0.003030808826265754
58.76118469 0.02614854123525438
58.76487732 0.016623737346174935
72.04424286 0.0038575501107844692
74.05568695 0.002901354524032067
74.06008911 0.03466369305212664
80.87519836 0.0032784867926880625
89.55065155 0.0032159908693817087
90.05470276 0.013781168763668082
93.74184418 0.005051288852796155
93.74776459 0.006762015676449435
105.868454  0.002951395621894383
132.2126923 0.008281778790899162
145.2624207 0.0033062952141074925
187.0633698 0.0035030399090426184
193.0373993 0.018731683725377132
204.052948  0.034181257081509084
217.0602875 0.0036173324757194023
229.0611877 0.003995511812404191
241.2619324 0.003287809712245463
246.3080597 0.0037642855366933816
247.0710602 0.005437084322383665
248.0795441 0.017110710838369396
257.942749  0.00424554721269248
265.0819702 0.006482894145997047
273.9353638 0.005678661535710127
275.9517212 0.01672420326273673
278.9264526 0.0034660843267233597
300.9457703 0.005061941414946812
301.9306335 0.09522729075134884
304.2582397 0.004958507785102513
316.9169312 0.01185003876904881
319.9410706 0.06093473829854284
327.9105225 0.01268035895340782
342.95755   0.006709749814159372
344.935791  0.012325972349689709
345.9189453 0.017952895525868016
355.8449097 0.005079725469675756
356.9747925 0.027815627751178615
374.9831543 0.894955167182252
384.8434143 0.005530634192463591
392.9929504 0.020417865569009052
400.9623108 0.04537177226006123
401.8504028 0.0048003866788439405
410.8257446 0.003460623788712176
411.8321838 0.07362209131259799
413.8077393 0.006904225521520705
416.8342285 0.0073577835509389105
426.8426208 0.013806322889179072
427.8274536 0.016084713891357603
442.8121948 0.003241956206142297
454.8398132 0.007139869122565174
455.8215027 0.03314121577043219
466.8392944 0.012436694407584666
483.8754578 0.0033812189753992757
492.8534851 0.004634063199514922
501.887207  0.0719783655035207
510.8638    0.06344193940515672
515.8704834 0.01129911996828227
528.6340332 0.004056893085643025
528.8745117 1.0
533.876709  0.040105373406711255
565.7233276 0.012826887698964425
605.8772583 0.0032656917891970686


