PRECURSORMZ: 313.162158552
COMPOUNDNAME: casmi2022challengepriority69
FORMULA: C14H26O6
SMILES: C(CCCC(C(CCCC(=O)O)O)O)CCCC(=O)O
INCHIKEY: JCOCIXAHAFALHI-UHFFFAOYSA-N
PRECURSORTYPE: [M+Na]+
PRECURSORINTENSITY: 4400330.900391
IONMODE: positive
CHARGE: 1
PARENTMASS: 290.172940552
NUM PEAKS: 10
66.46174622 0.010520145596102008
67.21285248 0.010884742762608474
79.35467529 0.01211493406573055
217.0995941 0.04892017316653359
230.647934  0.010541268020244136
264.7279968 0.012298770702182948
269.1607056 0.020646174311525843
277.1286926 0.024234560849285214
295.139679  0.19317140009799497
313.1618042 1.0


