PRECURSORMZ: 373.0928915359999
COMPOUNDNAME: casmi2022challengepriority196
FORMULA: C19H18O8
SMILES: CC1=CC(=C(C2=C1C(=O)OC3=C(O2)C(=C(C(=C3)C(=O)O)C)OC)COC)O
INCHIKEY: FEPPYNQWWRLZNW-UHFFFAOYSA-N
PRECURSORTYPE: [M-H]-
PRECURSORINTENSITY: 77411244.35156
IONMODE: negative
CHARGE: -1
PARENTMASS: 374.1001675359999
NUM PEAKS: 85
52.26414108 0.011436009022690097
54.42483521 0.010726660521062432
55.01773071 0.014899733780989428
59.76671982 0.008964346201015425
76.47521973 0.008667879584516047
93.03322601 0.011920785042245988
105.0331955 0.016093244833391435
118.9643631 0.01342845937202914
120.0207825 0.011090035823422523
122.0358658 0.020762715229433706
135.0435333 0.04744166772367299
137.0224915 0.011141421081854445
137.4719391 0.01044998378123064
143.0492706 0.011934647813162152
150.541626  0.009630145377211043
153.0692902 0.016420420838934725
157.0648041 0.011341293617653563
159.0438538 0.02082409921723146
167.0484467 0.04336528015887677
167.0856018 0.03944560197666739
168.057312  0.018661849058828953
169.0641632 0.01342828194154979
171.043869  0.044755991852800596
174.030838  0.07707497917963493
180.0561676 0.07099945805077743
181.064621  0.328721074796192
182.0723419 0.047972108318297124
183.0437469 0.055032904378024945
183.0805054 0.018113073981338452
184.0496521 0.013341726019210772
185.059845  0.021911625129967246
186.0312042 0.018545874467207582
187.0386505 0.022856334582617086
193.0652008 0.0493100640163603
194.0726166 0.049119060685176116
195.0440979 0.13434881891511147
195.0792694 0.038154156257721124
196.0519409 0.07558321792852934
197.059906  0.16338052739778947
198.0320282 0.07537004158580785
198.0670624 0.05172093834403563
199.0388336 0.20057025274709697
199.075058  0.04285050447219438
200.0464783 0.015635665543258823
201.0544281 0.03731656842754643
202.0268555 0.010137605245730034
203.0670013 0.01025840409090764
208.052002  0.0385102603894568
209.0598602 0.8990079627644814
210.0319214 0.01241925220062037
210.0677643 0.24102128482934798
211.039093  0.05620644580392734
211.0752106 0.13907355368692836
212.0464935 0.020330865678159796
213.0546722 0.0477015326356671
215.0340729 0.018339830133950224
215.0693665 0.020277680602054968
223.0380554 0.08520351707381264
223.0753937 0.013162648799462237
224.0467987 0.06463894878179062
225.0545502 0.3161191596565933
226.0630646 0.10827242960616204
227.033371  0.04157512490920198
227.0706787 0.14019907987383018
228.042038  0.35326784174103004
228.0678711 0.01482267792719192
228.0795898 0.019202645563130293
236.0485535 0.021776193488786618
237.0550385 1.0
238.0623474 0.18883460655280587
239.0345764 0.04174335219715433
239.0705719 0.7749281612981013
240.0429688 0.038044221260455736
240.0788116 0.04536529043824781
241.050354  0.043398604618057536
243.0289154 0.048419989235234835
253.0503693 0.18888381393907946
254.0571899 0.09426327970420943
255.0653839 0.15134249327962926
265.0516357 0.04641782659658486
267.068634  0.012590857625738416
271.0603333 0.013916164734008843
281.0446167 0.05330103909968444
283.061554  0.053745686838998406
284.0672913 0.016505647772193106


