PRECURSORMZ: 531.440786336
COMPOUNDNAME: casmi2022challengepriority237
FORMULA: C34H58O4
SMILES: CCCCCCCCCCCCCOC(=O)C1=CC=CC=C1C(=O)OCCCCCCCCCCCCC
INCHIKEY: YCZJVRCZIPDYHH-UHFFFAOYSA-N
PRECURSORTYPE: [M+H]+
PRECURSORINTENSITY: 2048033.869263
IONMODE: positive
CHARGE: 1
PARENTMASS: 530.4335103359999
NUM PEAKS: 13
57.07003403 0.9491623082040742
57.59871292 0.07576485959207946
59.50532913 0.07018135194323993
71.08556366 0.9477589878846123
81.82245636 0.07693042206889583
85.10127258 0.6153964631429638
110.8960037 0.06826252312037562
149.0228119 1.0
187.8656311 0.07245622823787104
215.1038818 0.5744710110782334
222.9974365 0.0959116243951555
253.9098053 0.09474979170676728
540.6230469 0.0890701431916794


