PRECURSORMZ: 499.2302381119998
COMPOUNDNAME: casmi2022challengepriority4
FORMULA: C26H36O8
SMILES: CC1CC2(C(C1O)C=C(C(CC3C(C3(C)C)C=C(C2=O)C)OC(=O)CCC(=O)O)C)OC(=O)C
INCHIKEY: XPXRFYSHQGUVFK-UTXMSIPTSA-N
PRECURSORTYPE: [M+Na]+
PRECURSORINTENSITY: 11306363.79297
IONMODE: positive
CHARGE: 1
PARENTMASS: 476.24102011199983
NUM PEAKS: 91
51.24491882 0.031126528791527497
53.03874207 0.06447461055964217
55.05452728 0.3512508042804318
67.05429077 0.6627076308230299
69.0335083  0.058930799737993644
69.06993103 0.474747307076772
71.00038147 0.0396398536301833
79.05425262 0.5995389055673332
81.0699234  0.48183071879615885
83.04904175 0.062377796801217335
89.54805756 0.03680837811218981
91.05419922 0.8044050590754187
93.06984711 0.4201748838964219
95.04879761 0.21338900982737152
95.08552551 0.42182715651231334
97.06461334 0.07534909459497269
103.0541    0.05626456729054128
105.0448532 0.045671064321882573
105.0698776 1.0
107.0489502 0.04672486271242587
107.0853119 0.507638147844265
109.0644531 0.06348307967869954
115.0539703 0.049436127618292476
117.0698471 0.3086527663821582
119.0855484 0.9453067173817846
121.0645447 0.07341149674414701
121.1004486 0.06031379979227037
128.0618134 0.36436127354809267
129.069809  0.3685447701615517
130.0776215 0.20000191024836392
131.0855865 0.5116908253801131
133.0644226 0.041959023591699375
133.1006927 0.3368533809288181
135.0802917 0.045385877415278844
141.0697479 0.3151304581065407
142.0775604 0.7872677862566457
143.0854034 0.6795034829756031
144.0930786 0.0831285085992801
145.0643768 0.15895907800084208
145.1008759 0.6480197443270893
147.0798798 0.08441647050392088
147.1167145 0.05437095126152802
153.0691833 0.15107944841512622
154.0774536 0.20436647205846784
155.085022  0.6904734201455582
156.0931854 0.5171591945655146
157.0644531 0.052263614669443056
157.1010895 0.6582213137344486
158.0722809 0.05605162070740912
158.1083984 0.15397952161057388
159.0801392 0.2193374310136858
159.1168518 0.24474515705930308
160.0878754 0.055319145852863974
161.0950012 0.14696179608665202
165.0696411 0.07836374975693736
166.0766296 0.0674135737769536
167.085556  0.3661487917481486
168.0926819 0.2088686771437861
169.1006927 0.6471793931364908
170.1082916 0.16064058400376463
171.0802307 0.06816241089679509
171.1165619 0.33235910666774166
172.087738  0.08485609769721604
173.0957947 0.34914945203537623
173.1317596 0.05820939114983251
179.0852814 0.07828442834039204
180.0922546 0.047031141395793785
181.1002808 0.3717755139358547
182.1085815 0.2646702068179794
183.1169586 0.3187192219466195
184.1226807 0.05690712214365241
185.0955048 0.20913735028263772
185.13237   0.061337251582081545
186.1030121 0.04071247784770604
187.1118622 0.04380221565096819
192.0932159 0.04039105221222603
193.1003418 0.17215127955022477
195.0795593 0.082370877749902
195.1165924 0.19110826813458057
196.0882568 0.045451925899226024
196.1243744 0.1562937545681284
197.0960388 0.08358647417686739
197.1322479 0.12495474687496541
198.1029358 0.05004102093684937
199.1118622 0.07527209841178
199.7278442 0.0363710168686794
209.0964966 0.041019105645429446
209.1334839 0.05596265583015773
210.1045227 0.04393326198226341
211.1477356 0.05081828123493243
223.1479797 0.05939854710461747


