PRECURSORMZ: 265.144533184
COMPOUNDNAME: casmi2022challengepriority58
FORMULA: C15H22O4
SMILES: CC1CCC=C2C1(CC(C(C2O)O)C(=C)C(=O)O)C
INCHIKEY: JJXLDNFRQCESGZ-UHFFFAOYSA-N
PRECURSORTYPE: [M-H]-
PRECURSORINTENSITY: 60088719.24219
IONMODE: negative
CHARGE: -1
PARENTMASS: 266.151809184
NUM PEAKS: 61
50.78507233 0.004446860397337805
54.78370667 0.003364732581912946
57.03335571 0.003499379017692864
58.00480652 0.013830798692979247
63.20616913 0.002149754285881642
66.28434753 0.012483255916920614
66.28882599 0.005025577160257167
71.01296997 0.0025887590897610245
71.04897308 0.0028779883314792743
73.02812195 0.11295143250942377
82.47620392 0.002528218750854621
83.04354858 0.004674030048846248
83.0488739  0.12534085319141056
83.05450439 0.0033683038704686906
92.08533478 0.0028674915017125307
99.04381561 0.042220673903583854
111.0437622 0.0775095051176876
121.064888  0.004750805991551757
121.2966461 0.00260715355845193
127.0392914 0.0025970588536129834
135.0803375 0.00887114500427873
137.0838013 0.0038367494928310485
137.095932  0.12541660074905486
137.1053162 0.0022356661891678527
147.0806427 0.0035276961175882498
149.0953217 0.0029260276391608773
150.0673218 0.009186203377497268
153.0913391 0.00426065001789728
161.0960236 0.008563296820601743
163.1113892 0.00955263164670214
165.0909271 0.3327923185009764
166.0991516 0.004978429322465899
167.1061859 0.004123414364108233
169.1011658 0.025327210625722858
173.1326904 0.02986911618243041
175.1116791 0.05566343133796539
177.1267395 0.02872874600556581
185.1130066 0.0041674983446313525
185.1325836 0.2592172510053806
187.1123505 0.004782694718065038
188.1190338 0.0028208974097234506
189.0924683 0.002432564910583282
189.1281738 0.0033081051433651804
190.0988159 0.008850099283174099
191.1095276 0.03379404208786146
191.1230316 0.004566445488197661
191.143158  0.3225912363213022
191.1580353 0.006267355164222263
193.1586609 0.034348169224154616
198.030365  0.002542660089791038
201.1277771 0.04414744695896815
203.1432648 0.49030928889638165
204.1147461 0.012675196787870836
205.1221466 0.010210450557983208
219.1382446 0.3931290020067802
221.1540527 0.09639667505219464
229.1222382 0.02018145169491056
247.1040192 0.002838268057192197
247.1334229 0.1299153479394068
265.144104  1.0
265.2131958 0.010814602102904518


