PRECURSORMZ: 503.1389253579999
COMPOUNDNAME: casmi2022challengepriority202
FORMULA: C18H34ClN2O8PS
SMILES: CCCC1CC(N(C1)C)C(=O)NC(C2C(C(C(C(O2)SC)OP(=O)(O)O)O)O)C(C)Cl
INCHIKEY: UFUVLHLTWXBHGZ-UHFFFAOYSA-N
PRECURSORTYPE: [M-H]-
PRECURSORINTENSITY: 61423406.88281
IONMODE: negative
CHARGE: -1
PARENTMASS: 504.14620135799987
NUM PEAKS: 19
62.96290588 0.004067256249333839
66.12133789 0.0010855241493183882
78.94243622 0.00617316926543734
78.94689941 0.003812976669675524
78.94911194 0.006691851711041128
78.95761108 1.0
78.96920013 0.015482506448864126
79.04117584 0.0009300090773735057
79.90536499 0.000981290896905959
87.61233521 0.0009322566258385856
96.96813202 0.1713974357778232
96.98399353 0.0012286710094101536
120.9683533 0.0009948270581349552
215.2460022 0.006525334612574804
215.2705383 0.0009690817845925723
231.0209503 0.0009406964940459399
416.8597717 0.0010531514998954356
467.1611633 0.029684037552264494
503.1418762 0.00434341384482919


