PRECURSORMZ: 955.4908009080003
COMPOUNDNAME: casmi2022challengepriority142
FORMULA: C47H74O17
SMILES: CC1C(C(C(C(O1)OC2C(C(COC2OC3CCC4(C(C3(C)C)CCC5(C4CC=C6C5(CCC78C6C(C(CC7)(OC8=O)C)(C)O)C)C)C)O)OC9C(C(C(C(O9)CO)O)O)O)O)O)O
INCHIKEY: DPEYAJFUJJMJNO-JOQVNCSISA-N
PRECURSORTYPE: [M+FA-H]-
PRECURSORINTENSITY: 5528455.898437
IONMODE: negative
CHARGE: -1
PARENTMASS: 910.4925999080003
NUM PEAKS: 18
71.01247406 0.7351318321770185
73.0280838  0.14493153371574877
83.0121994  0.07983326629213572
85.0280304  0.2819322532333483
89.02306366 0.4778208485437588
101.0230942 0.9551763957095443
104.911087  0.07049907232501469
113.0232544 0.5580941552619866
119.0337601 0.16757751291843295
131.033783  0.5856205235897302
143.0332642 0.09430134705320195
146.8303375 0.09018157143758009
157.7642365 0.0714076543147817
304.2734375 0.11535913539920287
359.0366821 0.0740672978179474
469.3340454 0.42294292124574234
601.3741455 0.4863698330463523
747.4325562 1.0


