PRECURSORMZ: 408.2591980479999
COMPOUNDNAME: casmi2022challengepriority80
FORMULA: C19H34O8
SMILES: CC1CC(CC(C1(C=CC(C)OC2C(C(C(C(O2)CO)O)O)O)O)(C)C)O
INCHIKEY: MRPDHXXPDCVBPQ-NTTCMOHZSA-N
PRECURSORTYPE: [M+NH4]+
PRECURSORINTENSITY: 5669718.449219
IONMODE: positive
CHARGE: 1
PARENTMASS: 390.22537504799993
NUM PEAKS: 23
52.97171402 0.020533612761347828
55.05450821 0.08309388252171779
55.2201767  0.02154198472710925
67.05439758 0.09334836130073651
69.06991577 0.0416938251248328
77.95102692 0.020935948955065065
81.06990814 0.12799305789341237
83.049263   0.22748446900464786
93.06995392 0.04328970580548567
95.08552551 0.45123379058544183
105.0696335 0.02381700216402491
107.0855942 0.04785738528342191
109.1012344 0.2228534267238444
119.0856094 0.11053937562542746
122.3531647 0.020307415087159362
133.1013489 0.10591680132840738
135.1172333 0.03964305772583588
137.0960541 1.0
138.419754  0.02474813720401366
161.9425201 0.022259780057759138
175.1483459 0.14301732909594236
193.1585693 0.11899787526699107
220.0128174 0.037750494548080285


