PRECURSORMZ: 472.2091636600002
COMPOUNDNAME: casmi2022challengepriority9
FORMULA: C25H25N7O3
SMILES: CN1C2=C(C=C(C=C2)C(=O)N(CCC(=O)O)C3=CC=CC=N3)N=C1CNC4=CC=C(C=C4)C(=N)N
INCHIKEY: YBSJFWOBGCMAKL-UHFFFAOYSA-N
PRECURSORTYPE: [M+H]+
PRECURSORINTENSITY: 42915031.05078
IONMODE: positive
CHARGE: 1
PARENTMASS: 471.2018876600002
NUM PEAKS: 68
54.44760895 0.0004711789530082983
69.92102051 0.0005298140385321363
72.27394867 0.013423116492761056
72.2790451  0.0053481283628081374
76.5306778  0.0007182306993852566
76.77684784 0.0007201118317780855
77.79433441 0.00046487912051839086
81.03337097 0.0008509585783513903
81.03786469 0.0005904443155341135
90.86985779 0.0004627804159172274
107.0601196 0.008632943560454834
131.0527039 0.0009453509837561827
131.0633392 0.002494353546526122
133.0765228 0.0009290135159748819
144.0718384 0.004311944744335845
145.0757446 0.036560957302934904
145.0890045 0.0010326500529020332
148.0865784 0.03483830184547995
148.1000214 0.0008967442077554306
149.0706024 0.017490207583026367
159.0547638 0.008014990843106537
167.0819397 0.001846677019923532
172.0450897 0.0007176918965843776
172.0626831 0.0424360988361404
172.0799866 0.0008567434599275897
173.0709076 0.0008132250671557641
177.0653839 0.0016973081935008072
183.4897308 0.000521291448385977
188.0811005 0.003284652737533327
189.0655823 0.03858816574155665
206.0915375 0.0010713878418514061
215.4945984 0.0028135330510899916
221.1288452 0.0004738480982972343
242.0922089 0.002202005759055299
261.1142883 0.0025426825250297346
263.0966187 0.0008061155778526341
263.1287231 0.01127692310381204
264.1000061 0.01667347248261291
265.0757751 0.001029911124138083
265.1078796 0.029340437784591073
277.1075134 0.002376488618067699
278.1402588 0.005107522843146996
282.1326294 0.0004997877373786295
288.1245117 0.00242521665810873
289.0106506 0.0049573078993527106
289.03125   0.00687601111084006
289.0477295 0.006802715336487573
289.1078491 1.0
289.1690369 0.0038456895645775186
289.1844482 0.007927784857330363
289.2095337 0.0007688705509821557
289.2266541 0.0021136293167255808
293.1030884 0.0010408136154943682
304.2504272 0.0004963741575501889
305.1500854 0.0008338290884651702
306.1343689 0.10225296617304327
307.0873718 0.0010953602377073615
307.1183472 0.0873465446858186
309.1384277 0.0007231142062337441
310.130249  0.0007579544631786142
324.1448059 0.10537174666999068
336.1216736 0.00400882671129487
337.1289673 0.05536114097629501
360.1417847 0.0007251372878601013
365.1515198 0.0030741795015889204
383.161377  0.0068708082036900075
400.1872559 0.010249053073687705
472.2086182 0.0038019090044124444


