PRECURSORMZ: 529.1715357799998
COMPOUNDNAME: casmi2022challengepriority19
FORMULA: C27H30O11
SMILES: CC1C(C(C(C(O1)OC2=C(OC3=C(C(=CC(=C3C2=O)O)O)CC(C(=C)C)O)C4=CC=C(C=C4)OC)O)O)O
INCHIKEY: SRPODRMTMBGGLK-MLIZCRTMSA-N
PRECURSORTYPE: [M-H]-
PRECURSORINTENSITY: 41413010.81641
IONMODE: negative
CHARGE: -1
PARENTMASS: 530.1788117799998
NUM PEAKS: 93
58.59321594 0.0027780772504295147
65.00174713 0.003565664931216618
66.75602722 0.0038029879465185028
67.25963593 0.010501851297813074
68.99655914 0.0031972151386439663
74.25845337 0.0030554729466435123
74.26245117 0.0027466058768430167
77.03804016 0.012475137266302772
79.01725769 0.012673224154037271
83.24024963 0.0026305574474756377
86.71450806 0.0026872964150101283
93.03327942 0.021023937716151703
95.04849243 0.004118987422783496
97.02805328 0.005160676537841801
105.0331192 0.0031806590113652895
117.0330429 0.014191059439777377
121.0281677 0.03588250358886646
123.0438538 0.06600709994924699
127.4080429 0.0029170713778460806
132.0204315 0.01254128022461973
133.0282288 0.0736610737481016
135.0074158 0.003251943287112937
136.0147858 0.0049826906064172035
137.0227356 0.006963427950217436
145.0280151 0.0037036603901945764
148.0156097 0.01087478967260059
149.0228271 0.02943320606638601
155.0492401 0.017070190624305766
156.0573425 0.002870551909071555
157.0653687 0.0037948062312007334
163.0024719 0.061124532677099504
164.0100708 0.0070173021171471
165.018158  0.048021523980901246
169.0653381 0.022132786543827946
171.0434723 0.004743019717341391
172.0516663 0.004686194266501189
173.0598145 0.016488924159988903
175.0021362 0.003644823133787369
176.0102234 0.03557849273753843
177.0180664 0.0299977533018287
178.0250092 0.005565738692597814
180.0566559 0.013531487110259793
181.064743  0.024024851863765087
182.0362854 0.005145562347047566
183.0285339 0.0033674790644896554
183.0443878 0.005240663401744526
185.0594788 0.006844421002594557
195.0449829 0.0205848195536547
196.0525208 0.03338818299687544
197.0421448 0.0033138886811828407
197.0597839 0.09596956806235894
198.0312653 0.04422691274818065
199.0392456 0.01698929617894421
200.0466461 0.004228679493600516
201.0545502 0.016148415380661446
208.0496368 0.0033566265605455767
209.0607147 0.0050042459948983
210.031662  0.010698309800263471
211.0392456 0.018949255168679038
212.0461884 0.006959320815282371
213.0547485 0.0393291638742972
215.0699768 0.003558773888806752
216.966507  0.0082772093289651
223.0392609 0.01671756629017066
224.0464935 0.07622893474496677
225.0549316 0.11694676927938727
226.0261841 0.04349936914407397
227.0341644 0.015313595648121124
239.0344238 0.02424540205027334
239.0712891 0.0035204190359891772
240.0419922 0.13337882359596465
241.0500183 0.17288814370517494
241.0786285 0.0045921763905453095
243.603363  0.0030633685765015005
251.033493  0.004263103466432934
252.0426178 0.004301099890341043
253.0507355 0.01617155344651981
254.0220032 0.06705830025492675
255.0331726 0.004684538588006582
255.0655975 0.062043247135157305
266.0209961 0.0037501584847681123
267.0295715 0.39378411611857095
268.0375061 0.10198800641361773
268.9619446 0.004777819218444093
268.9741516 0.0080234087776775
269.0451355 1.0
283.0615845 0.04140488159076711
295.0243835 0.06838275360782833
296.0322266 0.07912706595003544
297.039917  0.5032986929395908
298.0472717 0.03224118681054851
311.0544739 0.005470439679915994
530.4405518 0.0031573779027769698


