PRECURSORMZ: 725.2298385040002
COMPOUNDNAME: casmi2022challengepriority29
FORMULA: C33H42O18
SMILES: CC1C(C(C(C(O1)OCC2C(C(C(C(O2)OC3=CC(=C4C(=O)CC(OC4=C3)C5=CC=C(C=C5)O)O)OC6C(C(C(C(O6)C)O)O)O)O)O)O)O)O
INCHIKEY: BRDVWIOUHLWIGN-LJHYTBJKSA-N
PRECURSORTYPE: [M-H]-
PRECURSORINTENSITY: 7041118.941406
IONMODE: negative
CHARGE: -1
PARENTMASS: 726.2371145040003
NUM PEAKS: 23
65.00192261 0.011835550814498285
67.9437027  0.007398392599900464
83.01267242 0.0096211489842683
93.03295135 0.016128393290448923
107.0121994 0.05052031357341208
119.0487289 0.10730093512607418
120.6674728 0.007258822959029589
125.0231552 0.08400556564517085
145.0282745 0.04144453270013729
151.0023346 1.0
165.0177307 0.0328008872882527
165.2878571 0.008384472329489107
169.0126343 0.011061038614279949
172.0834808 0.007066478014435062
175.0019684 0.037955509726303197
177.0177917 0.07585498587276891
253.049881  0.009806314937519975
271.0606689 0.9445610653298925
304.2785339 0.01470287290103263
339.0707397 0.06685994435871684
357.0828247 0.008946077901588557
605.1685791 0.07477367666896167
725.2319336 0.00832153291075276


