PRECURSORMZ: 278.11755472
COMPOUNDNAME: casmi2022challengepriority236
FORMULA: C18H15NO2
SMILES: CC1=CC=CC=C1NC(=O)C2=CC3=CC=CC=C3C=C2O
INCHIKEY: FBLAHUMENIHUGG-UHFFFAOYSA-N
PRECURSORTYPE: [M+H]+
PRECURSORINTENSITY: 1552188.418945
IONMODE: positive
CHARGE: 1
PARENTMASS: 277.11027872
NUM PEAKS: 30
65.03874969 0.00567155399364491
65.65174866 0.003171296264112673
74.13782501 0.004147892016954426
74.44885254 0.0034497984367851298
78.37989044 0.003267398310591872
82.9030304  0.0034408409406384145
91.05409241 0.08423883508227198
93.05090332 0.0066009524351718
93.05725861 0.15652260546244892
94.90545654 0.003284481314880277
106.064827  0.03763574080583966
108.0806198 0.5688745510816823
108.0874252 0.00947551482243914
108.098671  0.0038800078863468436
109.0645676 0.0053146036986313
115.0540848 0.5487832946431089
115.0611572 0.008750019757333118
117.0698776 0.006305368020453806
119.0597229 0.006103017332596116
130.041153  0.021467616901700876
134.0598755 0.019438078395927004
143.0487518 0.007013777794543132
145.0643768 0.023866687663101665
155.0600128 0.014468327055867591
157.0812683 0.00394319095345385
161.0594482 0.06563237881510443
171.0436707 1.0
171.0791473 0.004726940423786502
216.4486084 0.017266364840474415
229.5371399 0.004213831735111474


