PRECURSORMZ: 287.04848918
COMPOUNDNAME: casmi2022challengepriority189
FORMULA: C14H10N2O3S
SMILES: COC(=O)C1=CSC(=N1)C(=O)C2=CNC3=CC=CC=C32
INCHIKEY: KDDXOGDIPZSCTM-UHFFFAOYSA-N
PRECURSORTYPE: [M+H]+
PRECURSORINTENSITY: 21728543.61328
IONMODE: positive
CHARGE: 1
PARENTMASS: 286.04121318
NUM PEAKS: 33
50.01617813 0.00036782499052583924
56.69945145 0.0003370403823999232
62.01612854 0.0005030722721827227
63.02384567 0.0003816840433652631
67.24568939 0.0002955891833237132
68.25531769 0.0007233077128367527
68.25892639 0.00041140969354339156
84.99887848 0.0013060449895567383
89.03954315 0.002049917878098561
90.28856659 0.0003066118644782795
111.9850235 0.07816262417068745
112.003952  0.0004638650990532923
116.0489731 0.002465698499829531
129.9662018 0.0005451083869462236
129.995575  0.13733679527968376
130.0188141 0.0017020780423874743
142.6506805 0.00038053027696536586
143.037384  0.0005578131211522509
143.9764252 0.0012554831927335318
144.0115204 0.26949277759864976
144.0217133 0.00778264485106509
144.0340424 0.01913862683845
144.0440826 1.0
144.0653534 0.005847985334580215
144.0715027 0.010465584782299801
144.0866089 0.002109262296170172
188.0008698 0.004832113849673786
217.4700317 0.0014928395789285316
227.027832  0.0005984457093627084
255.0222778 0.0038279826482594103
273.0324097 0.09071167632175929
273.1025696 0.0004990692821182283
287.04776   0.008315063815734278


