PRECURSORMZ: 585.240635756
COMPOUNDNAME: casmi2022challengepriority75
FORMULA: C33H33FN2O4
SMILES: CC(C)C1=C(C(=C(N1CCC2CC(CC(=O)O2)O)C3=CC=C(C=C3)F)C4=CC=CC=C4)C(=O)NC5=CC=CC=C5
INCHIKEY: OUCSEDFVYPBLLF-KAYWLYCHSA-N
PRECURSORTYPE: [M+FA-H]-
PRECURSORINTENSITY: 2201697.5
IONMODE: negative
CHARGE: -1
PARENTMASS: 540.242434756
NUM PEAKS: 9
152.3544464 0.0315207344557449
156.9943542 0.038851913864927354
215.4611206 0.07219288537200684
215.4860229 0.1803543026118633
278.1342163 1.0
304.2901306 0.04505789225126439
372.1523438 0.03682353453671771
397.1706848 0.4328355041268195
804.699585  0.035246301694302776


