PRECURSORMZ: 537.1977472239998
COMPOUNDNAME: casmi2022challengepriority120
FORMULA: C25H32O10
SMILES: COC1=C(C=C2C(C(C(CC2=C1)CO)COC3C(C(C(CO3)O)O)O)C4=CC(=C(C=C4)O)OC)O
INCHIKEY: TXSJJCSJHIDTDE-MZDBWQKZSA-N
PRECURSORTYPE: [M+FA-H]-
PRECURSORINTENSITY: 33588104.66797
IONMODE: negative
CHARGE: -1
PARENTMASS: 492.19954622399985
NUM PEAKS: 55
53.80427551 0.019785183832762097
54.43460083 0.0222068961059937
57.03346634 0.024970982070678306
59.01251602 1.0
59.01581192 0.04139331530982896
61.58543015 0.01879949356380037
63.18458557 0.026824208570566194
64.22815704 0.01976111349338039
65.51790619 0.01901407702857734
66.7907486  0.018503470732005287
71.01255798 0.43836347212063465
79.66612244 0.021993684229733197
85.02819061 0.09525788233216931
89.02309418 0.043694066724206886
108.0203552 0.104983442432809
109.0281143 0.6882671491998195
113.4185257 0.025262732975739426
123.0438309 0.04768552438779978
144.056488  0.03208227887270746
145.0661316 0.025691673904913604
159.0438538 0.18176733669181327
172.0514069 0.17115058695260213
173.0597687 0.27227339217198687
187.0753174 0.03989752529687202
189.055069  0.130954460601203
191.0701752 0.027721656081744282
203.070694  0.04644657991078357
213.0542603 0.031333072024939304
216.1432953 0.05174252216175318
216.168045  0.10608629311744364
225.0561523 0.03283823715713119
227.1004486 0.02183707635683147
240.0427399 0.10504306496998674
241.0502472 0.4052857862614545
253.0515289 0.11826143757273055
255.0663147 0.2296269021542834
257.7293396 0.026671668704514963
263.0709839 0.04204277805860706
266.0602112 0.029782917230784398
267.0665283 0.12372770617947178
268.073761  0.03267364393744991
269.0803223 0.05021059286955187
279.0668335 0.03251173154986952
280.0738831 0.04803930070764824
281.0831299 0.202300473979428
283.098114  0.1164402589658871
295.0961609 0.1803958313019276
298.0835571 0.04103433059040595
299.0924683 0.25037814279765985
311.0915222 0.14411787614588947
313.107666  0.1994658784937165
326.1199036 0.02020881245414024
329.1026306 0.11794452788967308
343.1166687 0.029488420550984565
344.1227722 0.03578890072334253


