PRECURSORMZ: 705.2389112
COMPOUNDNAME: casmi2022challengepriority168
FORMULA: C34H40O16
SMILES: CC1C(C(C(C(O1)OC2=C(OC3=C(C2=O)C(=CC(=C3CC=C(C)C)OC4C(C(C(C(O4)CO)O)O)O)O)C5=CC=C(C=C5)O)O)O)OC(=O)C
INCHIKEY: ABAIOHPURNHXKB-JWFSFCLHSA-N
PRECURSORTYPE: [M+H]+
PRECURSORINTENSITY: 1796263.03125
IONMODE: positive
CHARGE: 1
PARENTMASS: 704.2316351999999
NUM PEAKS: 36
52.10460281 0.02643193741418718
53.0389061  0.04761270435713317
55.01826096 0.03856394577493224
55.05450058 0.13725854380628466
57.03380203 0.13595835903661113
59.04939651 0.053386995470222576
61.02851868 0.2048929978209009
63.38360214 0.02731367848533715
63.62229538 0.029772331724207107
63.62623596 0.028119522170707956
67.28923035 0.02590381542578773
69.03353119 1.0
71.04917145 0.3276505299682155
73.02846527 0.04756531786152205
81.03353882 0.1653353134195543
83.04897308 0.47874380870956257
85.02841949 0.6503623565132504
87.04409027 0.09755108537946121
87.24388123 0.028784184594052555
97.02822113 0.21099868210614647
109.0287247 0.047341097713360945
109.8537827 0.03319660995963331
111.0442123 0.13477184123402186
117.1590958 0.03326322569125131
117.1821136 0.029871752431416796
121.0283432 0.2103156515601813
166.624939  0.027265635247249072
173.0600128 0.14200887695383183
220.1417084 0.04485589233024035
229.0503998 0.21095253561381264
272.7304382 0.03202246004158328
277.156189  0.03156841906379178
299.0550842 0.8165001633130242
343.9584351 0.03216881487283836
351.3175354 0.029359667818736872
375.0931396 0.025849269059401953


