PRECURSORMZ: 175.04006811600001
COMPOUNDNAME: casmi2022challengepriority249
FORMULA: C10H8O3
SMILES: CC1=C(OC2=CC=CC=C12)C(=O)O
INCHIKEY: YMZTUCZCQMQFMK-UHFFFAOYSA-N
PRECURSORTYPE: [M-H]-
PRECURSORINTENSITY: 37974137.00293
IONMODE: negative
CHARGE: -1
PARENTMASS: 176.047344116
NUM PEAKS: 30
57.95889664 0.0006649185173058179
59.74102783 0.0006219515961668124
61.61201477 0.0007500246423252497
62.78755951 0.0006761683773033559
65.78153992 0.0006650831147949557
70.30269623 0.0006474971185979856
80.91539001 0.0007595939997971937
83.96679688 0.0006486276621278922
103.0460739 0.0010483004394816024
103.0539169 0.036645089470402216
117.8466949 0.000837228124047731
118.9648438 0.050539188581046036
119.0488358 0.0014445280605294968
130.0411835 0.0008679058482181596
130.8736115 0.0008642356710633326
131.0240631 0.010373090795254345
131.0303345 0.00447203085048847
131.0488434 1.0
131.0670471 0.00873080704986812
131.072113  0.007309153310515875
131.0812073 0.004826965470599988
132.0521393 0.011207487180315098
146.9598694 0.08080646463260327
147.043869  0.023374440242408586
159.4891815 0.0006618390937829826
174.8270264 0.007439525242822288
174.9549103 0.0009934850611066602
175.0388947 0.07616759530762199
175.0563354 0.0017468039392908963
176.0413513 0.0009723295539395432


