PRECURSORMZ: 251.08150356
COMPOUNDNAME: casmi2022challengepriority55
FORMULA: C15H10N2O2
SMILES: COC1=CC2=NC=CC3=C2N(C1=O)C4=CC=CC=C34
INCHIKEY: TXEFUSAHPIYZHD-UHFFFAOYSA-N
PRECURSORTYPE: [M+H]+
PRECURSORINTENSITY: 49104579.48047
IONMODE: positive
CHARGE: 1
PARENTMASS: 250.07422756
NUM PEAKS: 27
52.01633072 0.0004890226653860826
52.86512375 0.00045520232082763403
56.75997543 0.000527390572450543
62.76751709 0.01059111919718855
62.77175903 0.006595391416877759
72.30387115 0.0004109633264350724
90.24718475 0.00041788104401931266
142.5831299 0.0005435011964081062
179.0638275 0.0019521564795166983
190.6265411 0.0005607607767983745
195.0915833 0.0018602504111920935
208.0628815 0.058001293851112724
212.9389343 0.0004780096283314218
215.850235  0.0013432512196840688
215.8740387 0.0009525717768671548
222.0794067 0.0025961512405293322
223.0865631 0.002877883117931122
236.0580597 0.016266037646434327
250.0743866 0.0007512485348275309
251.0005341 0.0012028111369569916
251.017868  0.009757874122811039
251.0320587 0.004949779742460627
251.0812683 1.0
251.129715  0.005601504081080225
251.1398468 0.004086539429985894
251.1630096 0.00427750768352167
251.2126617 0.0006457249789680601


