PRECURSORMZ: 373.1140175999999
COMPOUNDNAME: casmi2022challengepriority205
FORMULA: C15H20O8
SMILES: COC(=O)C(C1=CC=CC=C1)OC2C(C(C(C(O2)CO)O)O)O
INCHIKEY: KQLFQMPSIZRACE-OXEYGOSQSA-N
PRECURSORTYPE: [M+FA-H]-
PRECURSORINTENSITY: 45933161.25781
IONMODE: negative
CHARGE: -1
PARENTMASS: 328.1158165999999
NUM PEAKS: 9
60.20583725 0.04747060262577056
71.01252747 0.1068322576994807
85.02805328 0.056703301326667475
113.0230637 0.05415405544308013
125.3248444 0.0456211685757747
133.0649719 0.22237370399842735
151.0388031 1.0
161.0596008 0.2390867110557557
215.9112091 0.3270747450069529


