PRECURSORMZ: 467.27277161999996
COMPOUNDNAME: casmi2022challengepriority3
FORMULA: C22H40N2O7
SMILES: CC(C)CC(C(=O)O)NC(=O)C(C(C)C)OC(=O)C(C(C)C)NC(=O)C(CC(C)C)O
INCHIKEY: IFQVIMQHTPDZQU-UHFFFAOYSA-N
PRECURSORTYPE: [M+Na]+
PRECURSORINTENSITY: 7403866.34375
IONMODE: positive
CHARGE: 1
PARENTMASS: 444.28355361999996
NUM PEAKS: 19
67.23977661 0.005000601870807277
72.08069611 0.010899205634524137
73.25679016 0.00489107798062718
82.4511261  0.005027967764865303
88.54369354 0.006357886158513028
123.880928  0.005082783784529307
141.0522766 0.042868175971775
155.0678253 0.19144254391820437
186.1477966 0.007144412277097897
208.1303253 0.047504176387333945
220.0571747 0.00799859868653026
236.1262512 0.021790684844331113
240.1207886 0.022780445050050096
254.1360931 0.7666826217163756
301.843811  0.005109331280706924
312.8980713 0.00567450936974265
353.2037964 0.03231587016871134
354.188324  1.0
467.2705688 0.013113265151895313


