PRECURSORMZ: 373.1656625519999
COMPOUNDNAME: casmi2022challengepriority198
FORMULA: C21H26O6
SMILES: CC1=C2COC(=O)C2=C(C(=C1O)CC=C(C)CCC=C(C)CCC(=O)O)O
INCHIKEY: LFMVGCLSSWANEO-UHFFFAOYSA-N
PRECURSORTYPE: [M-H]-
PRECURSORINTENSITY: 329440841.4063
IONMODE: negative
CHARGE: -1
PARENTMASS: 374.1729385519999
NUM PEAKS: 44
50.06748199 0.0020270031186476133
53.69750977 0.002706059175771863
64.76725006 0.002063908376131212
72.06767273 0.00220196235099677
79.26602936 0.002329343338102118
88.79240417 0.0027463942991756396
93.28856659 0.012551498941106767
93.29566193 0.005210892140199021
107.1328659 0.002768003429962108
110.3787918 0.0023905530261273036
111.0445251 0.003458684370964106
122.0362244 0.0029929986869967817
127.4132233 0.0025399685027465715
135.7761841 0.0021600271982038133
148.0517426 0.004455464568281336
149.0592041 0.011268541702262198
166.5671844 0.0025159029536663212
178.026001  0.09645343216027112
179.0336761 0.01624921336538954
187.0755463 0.013985685159326466
188.0838623 0.012231522101093205
191.0339355 0.1226925384759859
191.0536652 0.0037996644040782577
192.0419922 0.046908682059190465
202.0991364 0.04477185766913864
203.0340729 0.046574365979473044
203.1063995 0.005180833003076499
217.0500031 0.009006505314328039
218.2463226 0.012044959536375157
224.030777  0.0025077240426258974
231.0652771 0.012828909963120805
232.0731201 0.01767364378269441
241.194519  0.004071598620546629
246.0892639 0.03693836423093153
257.1907654 0.026420732450614503
267.1759949 0.0028806958160621206
285.1860657 0.04092956574168813
301.1813354 0.0040813566900413396
311.1655884 0.01681839824235222
329.1755371 0.11962742208832818
355.1546936 0.3166596898458568
373.1650085 1.0
373.2771912 0.0021992920056203287
373.304718  0.004225776753765421


