PRECURSORMZ: 389.0878061559999
COMPOUNDNAME: casmi2022challengepriority127
FORMULA: C19H18O9
SMILES: CC1=CC(=C(C(=C1C(=O)OC)OC2=C(C(=CC(=C2C)OC)C(=O)O)O)C=O)O
INCHIKEY: ONSPHUIOGAJFGD-UHFFFAOYSA-N
PRECURSORTYPE: [M-H]-
PRECURSORINTENSITY: 576514990.7188
IONMODE: negative
CHARGE: -1
PARENTMASS: 390.0950821559999
NUM PEAKS: 93
56.514534   0.005130246202685686
62.46917343 0.0048210828683837815
63.02266693 0.021005293947676983
65.00187683 0.06326945885114445
68.99685669 0.25317884594499085
69.00114441 0.009141580631368964
77.03814697 0.008290199328818137
81.03314209 0.13809125174252398
89.0016861  0.008133631263123536
93.03297424 0.010853097560108828
99.0072937  0.041010320880994766
105.0331421 0.7418200816474834
105.0396194 0.014853754340596189
105.0527039 0.005501855663163321
107.0124207 0.15880314970034892
107.0482864 0.007130609154017554
109.0279694 0.06919071792762352
120.0206223 0.04035119484778412
121.0282516 0.04812139380389548
122.0360184 0.09051091868644123
122.061058  0.004812600137296918
123.0443344 0.03744209589203404
131.0126343 0.03621273724850679
133.0283356 0.043323347052825784
135.0074158 0.006215295022480744
135.0437927 0.08378792070244942
137.0231934 0.06348896784259402
137.0594788 0.14252978022981888
139.0380859 0.0068632653124421905
148.0149078 0.008704685851320889
149.0231018 1.0
149.0536957 0.004243406087680393
149.0567322 0.004267401851209852
150.0309753 0.025769583731876444
151.0385437 0.050288715036067765
153.0175934 0.027384968993819262
155.0482178 0.005472816284830849
159.0436707 0.020321016658555104
163.0389099 0.07025360963378076
165.0541077 0.010949594422404403
167.0340576 0.032773773033444586
169.0649567 0.01771636172051475
170.0723572 0.01154895857395531
172.05159   0.007001719911817061
173.0595398 0.007315501759537256
175.0024872 0.12072512517749653
177.0006561 0.0088890306635928
177.0181732 0.2612299942910612
180.0582428 0.00486864238184034
181.049469  0.4018235794139339
181.0631409 0.018779345589573823
183.0441589 0.13127230296142997
184.0522308 0.011328584403264749
185.0586243 0.010491513695296618
186.0313568 0.023651099621387426
186.0686188 0.011707785206763046
187.0388184 0.08913773753052527
196.0519257 0.019600968643157853
197.0597534 0.17608417304182036
198.0673981 0.03433835349574993
199.0395813 0.01893425069090841
200.0470276 0.008133748194805241
201.0542908 0.006085580922308812
202.0622406 0.02096280915400281
207.0290375 0.24844180181864686
207.0514374 0.007288681203066503
208.0522461 0.008813756613517673
208.0861206 0.00568160327468799
209.0441895 0.2898770996644459
209.0649719 0.01167006523511383
211.0387726 0.0871149000795624
213.0549316 0.10020009671943571
214.0629578 0.05832274873126706
220.8144531 0.006495383265325714
224.0470123 0.019343110668254032
225.0550842 0.19339704788216655
226.0251617 0.007163343112677406
226.0364227 0.0066104233034708325
226.062851  0.41440683845782417
226.0887146 0.009945527992416985
227.0338898 0.04885039774927871
228.0164795 0.007070369753322675
228.0421143 0.1997193123526822
239.0362549 0.005768360246313834
240.0419617 0.005508978703439025
241.0506134 0.06964095213567618
242.0581512 0.027436183918369918
253.0499268 0.026665791917844368
254.057663  0.0376421354704706
255.0291748 0.023065042640825466
269.0461731 0.04467234927144489
270.0531616 0.045869047686633746
284.0708618 0.006259779751124774


