PRECURSORMZ: 469.09069890399985
COMPOUNDNAME: casmi2022challengepriority119
FORMULA: C21H22O10
SMILES: C1C(OC2=CC(=CC(=C2C1=O)O)O)C3=CC=C(C=C3)OC4C(C(C(C(O4)CO)O)O)O
INCHIKEY: KSDSYIXRWHRPMN-UHFFFAOYSA-N
PRECURSORTYPE: [M+Cl]-
PRECURSORINTENSITY: 6176964.375
IONMODE: negative
CHARGE: -1
PARENTMASS: 434.12129690399985
NUM PEAKS: 18
57.38517761 0.02210104578869608
63.02257919 0.1489320346396231
65.00190735 0.2612686804762602
66.75595856 0.027039521852370827
70.13543701 0.026793741533426632
83.01237488 0.17531761752510874
93.03304291 0.1730434699304411
107.0124588 0.5464338171297608
108.0200272 0.11830956747759606
117.4259949 0.027132371345793563
119.0488358 1.0
136.0153351 0.15209894583390576
151.0024414 0.843325863656728
164.0102539 0.17060425090775527
177.0180969 0.14832225791052614
220.2514038 0.032858592886590154
250.5871429 0.027495893852049855
271.0608826 0.05037526054522796


