PRECURSORMZ: 363.15799061599995
COMPOUNDNAME: casmi2022challengepriority65
FORMULA: C17H28O6
SMILES: CC1CC(C2C(C(C3(C2(C1C(OC3)O)O)C)O)(C)C)OC(=O)C
INCHIKEY: QFIZHIXXEOCVCR-QGCDZIMUSA-N
PRECURSORTYPE: [M+Cl]-
PRECURSORINTENSITY: 21490466.58594
IONMODE: negative
CHARGE: -1
PARENTMASS: 328.18858861599995
NUM PEAKS: 15
59.0125351  1.0
67.21578217 0.06049915420334067
69.88117218 0.05345672595239144
72.06072235 0.06067551121588687
86.30794525 0.060673955958050425
116.5350266 0.0601607076918743
121.4403534 0.07444405068010634
123.1057205 0.05961678262387851
124.5021286 0.05806958444986787
137.8406982 0.05870826821459985
158.9768372 0.46826029807386327
215.7227325 0.06195021635481726
216.5812073 0.3068919906646571
261.1497498 0.08655378245032364
279.1591187 0.3120377325584951


