PRECURSORMZ: 284.16560297600006
COMPOUNDNAME: casmi2022challengepriority57
FORMULA: C18H23NO2
SMILES: CC(=CCC1(C2=C(C=C(C=C2)O)NC1=O)C(C)(C)C=C)C
INCHIKEY: FVINVHIYNUTXPB-SFHVURJKSA-N
PRECURSORTYPE: [M-H]-
PRECURSORINTENSITY: 16441944.81934
IONMODE: negative
CHARGE: -1
PARENTMASS: 285.17287897600005
NUM PEAKS: 31
50.01691437 0.0026526247251141616
50.01909637 0.001567485257816088
53.52065277 0.0032309267481349514
53.52310181 0.0020519804582491926
53.77235413 0.012018753380151749
75.91175842 0.0015468594972819444
113.1734772 0.0014924980825094883
113.7324142 0.0015389340045254267
138.3273621 0.0015197530413909365
146.023468  0.25249508883834126
146.0570984 0.00153708517336205
147.0312653 0.2703690926877376
160.0266876 0.00228421785401123
160.0391235 0.12020236173191022
162.019165  0.0026231319690775763
172.0392914 0.018371251511126663
172.6329956 0.0019170083271032496
173.0470123 0.0037933697080741883
176.0342255 0.010548972682408895
186.054718  0.006625668449862408
200.0707855 0.26859588496349435
214.0865479 0.3494223519493534
214.1405182 0.0017741798285468052
214.1444702 0.001838617233355751
215.027771  0.0033180218879738494
215.0942841 1.0
215.145874  0.009881772979066918
217.6833954 0.003771849822840282
217.7093353 0.0021498262204336137
232.0609894 0.01000625452343837
284.1651001 0.04692211832121781


