PRECURSORMZ: 421.2584648719999
COMPOUNDNAME: casmi2022challengepriority243
FORMULA: C24H36O6
SMILES: CC(=O)OCC1(C2CCC34CC(CCC3C2(CCC1=O)C)C(C4)(COC(=O)C)O)C
INCHIKEY: YXNJBOPJNBXMGA-HUDUBEJRSA-N
PRECURSORTYPE: [M+H]+
PRECURSORINTENSITY: 2198020.96875
IONMODE: positive
CHARGE: 1
PARENTMASS: 420.2511888719999
NUM PEAKS: 50
64.23863983 0.042143990447201546
79.22705841 0.04815011762785584
80.99545288 0.04763074406216148
81.06970978 0.0845328509002864
83.20024109 0.05547894630405764
84.33908081 0.05061422484015186
93.06950378 0.06667767141206307
95.08560181 0.0950245248611712
97.06456757 0.08078779878118089
107.0853729 0.10496012630596062
109.1013718 0.057192663475874685
110.0262756 0.04419532648977183
117.0702362 0.05466497725611639
119.0851746 0.08831389925444483
121.1009903 0.0952677408567842
125.0959778 0.06959399268059442
131.0852509 0.23832939914721143
133.1009064 0.24718235048282566
136.014267  0.04730733247036702
145.1010132 0.2512868391110366
147.116806  0.2194519409246426
157.1013031 0.19411682505902428
159.116745  0.5102464119641275
171.1165466 0.21052506584681807
173.1325531 0.2339795051109491
175.1119843 0.09210910708379999
177.127121  0.053654486930221186
181.1008301 0.06731118602747145
183.1162109 0.07187444738847698
185.1322632 0.18088761113036858
187.1485748 0.06955251813407241
189.1273651 0.07136136001787986
195.1176147 0.15864635493614793
197.1313782 0.05752586049836506
199.1478729 0.31963469280612233
209.1333923 0.09352905099812829
211.1492157 0.06678254331174131
216.4128571 0.2529365087984933
223.1485748 0.15253936659170017
225.1631317 0.0673269230269125
237.1637878 0.0904817521938496
239.1806793 0.06111915478507323
241.1594696 0.08054807246041258
255.1736755 0.07831196530532859
255.212204  0.06771876570831817
257.6239624 0.04848137859786384
265.1950684 0.7265613933428401
283.2053528 1.0
427.7775879 0.05300545043231381
433.022522  0.04654966669685266


