PRECURSORMZ: 268.169590292
COMPOUNDNAME: casmi2022challengepriority76
FORMULA: C18H21NO
SMILES: CC(C)(C)C1=CC=C(C=C1)C(=O)N(C)C2=CC=CC=C2
INCHIKEY: HIYAQBUTHPUUSV-UHFFFAOYSA-N
PRECURSORTYPE: [M+H]+
PRECURSORINTENSITY: 159960144.3555
IONMODE: positive
CHARGE: 1
PARENTMASS: 267.162314292
NUM PEAKS: 31
53.02490616 0.0011315708056579047
57.07008362 0.022000239711561023
67.03931427 0.01116924782968194
67.04394531 0.0062352992592357125
71.58002472 0.000991489379240828
77.03942871 0.0030151821888644587
87.4593277  0.0008457713770990891
105.033432  0.012160026368599202
106.0649109 0.019805948038646583
115.1497345 0.0010428172529129338
134.0284424 0.0011168580739938578
134.0598297 0.35840724194180973
134.0839539 0.0023727341709261435
134.0898438 0.0008973734381305542
161.0652161 0.004653528331157783
161.0712585 0.00466609847836485
161.0958252 0.6703527308844031
161.1285248 0.004696797910829526
161.1344299 0.0015115219945154642
174.127182  0.0020665776741544497
177.8891449 0.0010458623956355751
208.5463257 0.0009419599699650442
212.0884552 0.0015974363648714961
212.1066742 0.12062792486529911
220.1652069 0.001019593796784636
224.0123749 0.0009484010276059864
254.3712158 0.0009443507302278517
268.103363  0.006714390115670243
268.1692505 1.0
268.2394104 0.006872523304387026
268.2538147 0.0018478184621414458


