PRECURSORMZ: 114.12772548
COMPOUNDNAME: casmi2022challengepriority176
FORMULA: C7H15N
SMILES: C1CCC(CC1)CN
INCHIKEY: AVKNGPAMCBSNSO-UHFFFAOYSA-N
PRECURSORTYPE: [M+H]+
PRECURSORINTENSITY: 101871936.6953
IONMODE: positive
CHARGE: 1
PARENTMASS: 113.12044947999999
NUM PEAKS: 24
53.03894424 0.010053746406950144
55.04555893 0.0014837146654396748
55.04808426 0.007287294394183415
55.04959869 0.0023555202947770537
55.05445862 0.6188482070731898
55.0609436  0.00390801342604652
55.06245422 0.007214156160332121
57.80136871 0.001184116241180811
67.85688782 0.0011914940055867112
69.06993103 0.08004426318152655
72.9370575  0.00843368444331039
76.90703583 0.001159432532665587
86.05978394 0.002483611579844764
97.08609772 0.009491364739410132
97.10112762 1.0
97.1068573  0.013855169557492344
97.11639404 0.006451633554904741
97.11991882 0.008204639392597203
98.11395264 0.0012215676650091675
114.0913544 0.0288506256670454
114.1086655 0.0022012721832186835
114.1276169 0.4797684433935013
114.1466904 0.0013405300331330889
114.151123  0.0018799707314035598


