PRECURSORMZ: 349.20094999599996
COMPOUNDNAME: casmi2022challengepriority146
FORMULA: C20H28O5
SMILES: CC=C(C)C(=O)OC1CC(C2(CC3=C(C(=O)OC3(CC2C1)O)C)C)C
INCHIKEY: BNKQCXTYXHSKGJ-XJXKWIQZSA-N
PRECURSORTYPE: [M+H]+
PRECURSORINTENSITY: 26863842.86328
IONMODE: positive
CHARGE: 1
PARENTMASS: 348.193673996
NUM PEAKS: 108
53.03887177 0.07459624316557163
55.01802826 0.047259021573760926
55.05450439 0.7280482844371142
55.05712891 0.009909512125643559
57.03374863 0.09255527958121096
57.07014084 0.015176853866095599
59.04932022 0.03282971104530879
65.03868103 0.0204376915917551
67.05433655 0.15118385366164538
69.03357697 0.03529513631217389
69.06555939 0.015440203643830985
69.06994629 0.765462649578974
69.07324219 0.010200026122989266
73.06491852 0.09233076943804884
79.05426025 0.27217932667487604
81.03350067 0.020634337124071825
81.06994629 0.32955351609231737
83.04918671 0.2034766351622491
83.08556366 0.04389159130599548
91.05422211 0.4600477164251689
93.06983185 0.2901043807493566
95.0490799  0.15410472035890826
95.08560944 0.14371014453081057
97.06451416 0.019486504155939808
101.0597    0.36995114156286263
103.0541229 0.13847070482669005
105.0444794 0.014974309809882945
105.0698929 0.759015713999142
107.0492706 0.09640068409510949
107.0854416 0.4593858199752863
109.0648346 0.07439877026269269
109.1013107 0.04954234511943863
111.0439301 0.016218365038779357
115.054184  0.1476548121261996
116.0620804 0.019560423500382305
117.0698547 0.3083102542837211
119.0494156 0.014329039632092503
119.0854568 0.6608597425383205
119.0952454 0.019425526009857367
121.0646973 0.30600262021172986
121.1012802 0.058174971845341636
123.0441208 0.04831817351652859
123.0803833 0.059562190250639545
123.1167755 0.03987366866853809
125.0593414 0.049170389254993306
125.53405   0.01044631054748574
126.0591278 0.008629086007616117
128.0619354 0.07558199838407445
129.0695801 0.09331834246586475
130.0778656 0.01723634360060562
131.0490417 0.011970619175792426
131.0854492 0.13545058574093266
132.0569305 0.011042810639017853
133.064682  0.25978920255485616
133.10112   0.22459836037877157
135.0439148 0.0491855358837697
135.0803375 0.0841206978334707
137.0597534 0.017411968039490654
140.5239868 0.009175000876825806
141.0698853 0.015394549897582622
142.0775452 0.12648708564106007
143.0735321 0.01449878826969789
143.0854797 0.31689788488262727
144.0935669 0.017211689561796747
145.0643005 0.03326533568094495
145.101181  0.12082475933273994
147.0440063 0.07637478779749518
147.0802002 0.23618409318475486
147.1165314 0.043436751356620396
149.0596313 0.18976028013938534
149.0961304 0.010595770561882652
151.0757294 0.01414954566529482
155.0853882 0.05654145631761449
156.0930328 0.08477241455119999
157.101059  0.22309590890251793
158.108963  0.012852205900908435
159.0802917 0.009891575961546413
159.1163177 0.12247113853460617
160.0529175 0.010501485738323706
160.0876923 0.017118802179147033
161.0595856 0.9587203306787614
161.0956573 0.18434643767116812
161.1324921 0.08252699767619812
162.5999756 0.008917927887718547
163.0752258 1.0
163.0877533 0.01691354343858534
165.0700989 0.015730125516525306
170.1087189 0.14948280117143908
171.0800171 0.020863910400820675
173.0961151 0.009753480596917184
174.1040802 0.015929866671171983
175.0579834 0.012371091923836921
175.0752716 0.552703681256333
175.1115723 0.020672190329767855
175.1480865 0.036542161520698
177.0909424 0.047474747420742446
180.0929718 0.011505027418980239
180.1495972 0.009259933338793958
183.0793152 0.009722467567073956
185.132019  0.14196642698672657
189.0906982 0.23327598323167145
189.1265106 0.01739504503676038
198.1040497 0.033847336738268397
199.6530457 0.00962400779690507
203.1433868 0.06832285491015959
213.1268158 0.046469632533055256
231.1381226 0.03702318059743052
304.2384949 0.011433245337105252


