PRECURSORMZ: 524.280499856
COMPOUNDNAME: casmi2022challengepriority118
FORMULA: C29H43NO4S
SMILES: CC(C)C1=C(C(=CC=C1)C(C)C)OS(=O)(=O)NC(=O)CC2=C(C=C(C=C2C(C)C)C(C)C)C(C)C
INCHIKEY: PTQXTEKSNBVPQJ-UHFFFAOYSA-N
PRECURSORTYPE: [M+Na]+
PRECURSORINTENSITY: 85722919.82812
IONMODE: positive
CHARGE: 1
PARENTMASS: 501.291281856
NUM PEAKS: 32
55.9659729  0.015783187498482572
65.03878784 0.01863069832439474
91.0480957  0.02460131082787017
91.05416107 0.5755645359749652
95.04902649 0.023052646422488193
105.0698318 0.21136229543281332
107.0490875 0.46599710038090747
107.0854034 0.06669338862759629
119.08535   0.09324632264834883
119.2747269 0.014274731623256745
121.0647278 0.124446185763039
121.100563  0.016120316843378744
130.6279755 0.014337277443028268
133.1010742 1.0
135.0802155 0.41178828929236017
147.1157379 0.024350076950488467
161.1313171 0.026937863575439914
175.1474304 0.07774757457508974
175.875885  0.015342757371786697
189.1629181 0.01998445863225337
189.7702026 0.01711670165011396
200.116806  0.7319211918283322
217.1953735 0.25040425090264506
217.3713684 0.014999707845117756
221.1133423 0.017276718638731176
221.1363068 0.01413702072832862
268.1663818 0.024510454201739477
284.1977539 0.12547959610911846
291.5924683 0.017201296951922112
441.3292542 0.01601418930811992
524.8617554 0.015075321739086295
537.8357544 0.015697436941077784


