PRECURSORMZ: 827.4434567920001
COMPOUNDNAME: casmi2022challengepriority110
FORMULA: C41H66O14
SMILES: CC1(CCC2(CCC3(C(=CCC4C3(CCC5C4(CCC(C5(C)CO)OC6C(C(C(CO6)O)O)O)C)C)C2C1)C)C(=O)OC7C(C(C(C(O7)CO)O)O)O)CO
INCHIKEY: YSFNIMJWUPAQKC-RZHLFJOWSA-N
PRECURSORTYPE: [M+FA-H]-
PRECURSORINTENSITY: 29037478.6748
IONMODE: negative
CHARGE: -1
PARENTMASS: 782.4452557920001
NUM PEAKS: 24
59.01254654 0.03888761558605059
66.23273468 0.0038191437913753603
68.8196106  0.034741697035681175
70.79492188 0.00395611002788734
71.0123291  0.02282891698847454
74.42766571 0.0032558992844858407
84.38381195 0.003585323575923821
85.02775574 0.007927871797097965
89.02292633 0.02759052851545561
92.37167358 0.0036073767403579714
101.0227737 0.021458091719974332
113.022728  0.016534152626473793
131.0339355 0.02657395241648966
133.8652802 0.003908550443249079
154.8417358 0.008092344625810245
154.8551788 0.007031880924174601
200.3718872 0.0049235938224687905
304.2727661 0.005702681269451742
316.5359497 0.004174300320090384
456.4845886 0.00417044370266487
495.0389099 0.004034021554390128
619.0695801 0.004869112453638337
619.3842163 1.0
791.1237183 0.003922932645351811


