PRECURSORMZ: 567.2083119079999
COMPOUNDNAME: casmi2022challengepriority51
FORMULA: C26H34O11
SMILES: COC1=CC(=CC(=C1OC2C(C(C(C(O2)CO)O)O)O)C(CC3=CC(=C(C=C3)O)OC)CO)C=CCO
INCHIKEY: UFFRBCKYXMEITK-PEBYTCCLSA-N
PRECURSORTYPE: [M+FA-H]-
PRECURSORINTENSITY: 50100649.98047
IONMODE: negative
CHARGE: -1
PARENTMASS: 522.2101109079999
NUM PEAKS: 58
53.13176346 0.004289649745089706
61.81052017 0.004960032071583736
80.9516983  0.0050434581748228045
82.90843964 0.004973174040289856
122.0359116 0.005427921149211085
134.0358124 0.011311961588928936
146.0355682 0.020506389046606375
148.0519867 0.02922725634182157
150.0310211 0.005766924001386711
158.0355988 0.005702501238811455
159.0443726 0.009168851811222184
160.0519409 0.06737177320400078
161.0224915 0.005375793049070194
161.0605164 0.041209285490628876
162.0310059 0.057215743514202964
162.0674438 0.06649081148307179
163.0386047 0.07228250875354594
172.0517273 0.41577919007846664
173.0595551 0.00845315022784388
174.0308533 0.08460502922268945
175.038681  0.04670926837324503
175.0753021 0.16788146529677078
177.054718  0.030354365027601613
177.0906067 0.010653018425679702
178.0626984 0.05930648310426259
180.0414581 0.011132495460510398
187.034668  0.009546617207463233
187.0753479 1.0
189.0539398 0.012243396969181131
190.0623779 0.2105288520608789
190.0818787 0.00730132958771597
191.0702972 0.05328244525684736
192.0418701 0.023516393041113654
193.0494537 0.10785390394076005
204.0775757 0.03443048857072957
205.0859833 0.18632319677494957
207.0654907 0.02646440783391618
208.0728149 0.031215196485239537
210.0528107 0.02796318321365147
215.3572235 0.013435765680876757
215.3818665 0.025324881856222635
221.0806122 0.007625584130723769
240.0619659 0.0061541952965623965
284.1047668 0.02850682083768823
293.080658  0.033131578098977175
296.1054993 0.06315364895263262
296.1382141 0.008704831376516411
297.1130981 0.008072630954075614
299.1282654 0.10751548886436374
308.1044922 0.04601002662598909
311.0920105 0.013328780974684134
311.1279907 0.08975805525139686
323.1288147 0.09378049668288105
326.114563  0.006189331813787762
329.1395264 0.08798626225076954
341.1399841 0.08600503501418374
358.9192505 0.005453407995009031
359.1486206 0.0068606214398547905


