PRECURSORMZ: 670.6202751760002
COMPOUNDNAME: casmi2022challengepriority89
FORMULA: C12H18Br6
SMILES: C1CC(C(CCC(C(CCC(C1Br)Br)Br)Br)Br)Br
INCHIKEY: DEIGXXQKDWULML-UHFFFAOYSA-N
PRECURSORTYPE: [M+Cl]-
PRECURSORINTENSITY: 3121770.054688
IONMODE: negative
CHARGE: -1
PARENTMASS: 635.6508731760002
NUM PEAKS: 20
147.438385  0.010363858266640213
147.4504852 0.00824822601424383
170.4853363 0.007646530024511271
218.9624481 0.007542376526760873
250.8527679 0.047936649149642935
252.850708  0.041878094944703875
273.5166931 0.00964299826596994
304.2747498 0.010235642335233282
428.9259644 0.01597107501681438
429.936676  0.01339211210328853
507.8415222 0.039315830088293556
508.7950745 0.05597883793608597
509.8371277 0.04018233110302572
510.7937317 0.008301735093932451
537.4908447 0.007399399865214592
589.6581421 0.019241124877661938
589.7678223 1.0
591.7657471 0.36353313840569934
670.6876831 0.027600771025004214
1334.750854 0.0071352446381450175


