PRECURSORMZ: 739.2443905040002
COMPOUNDNAME: casmi2022challengepriority133
FORMULA: C34H42O18
SMILES: CC(CC(=O)OC)(CC(=O)OCC1C(C(C(C(O1)OC2=C(OC3=C(C2=O)C(=C(C(=C3OC)OC)OC)OC)C4=CC(=C(C=C4)OC)OC)O)O)O)O
INCHIKEY: JDYWLRRIZNBKMP-IKRGWGHGSA-N
PRECURSORTYPE: [M+H]+
PRECURSORINTENSITY: 54068335.67969
IONMODE: positive
CHARGE: 1
PARENTMASS: 738.2371145040001
NUM PEAKS: 58
53.03878784 0.0012716804162620685
62.10430908 0.000572913671138436
69.03355408 0.004681260048000686
75.04406738 0.0007496851627630416
78.5483017  0.0006767061273715375
81.03347778 0.0066210154588564815
85.02838135 0.011157301517932022
97.02832031 0.005751697105689209
97.26673126 0.004579111356573309
97.27459717 0.0032744637007824074
99.04387665 0.0034372192366388114
100.9251785 0.0007138243026382045
101.0222778 0.0038067570587363955
101.0307236 0.0028339435735627093
104.777832  0.010129321984083435
104.7869873 0.00771398439955066
109.0282745 0.025181766472327522
113.0595703 0.016636329819190023
117.0545044 0.05071056275367188
127.0391159 0.012112928657172372
141.0544586 0.05550410692843702
141.0670319 0.0013978899919961135
145.0492554 0.0014704981042258098
165.056366  0.0011046429916075748
175.4576416 0.0007061808985123499
187.0598145 0.0035554142640673706
216.2492218 0.001434487449271282
216.2711029 0.002634440509329173
285.3806152 0.0006663726048104003
304.2542114 0.0008432581416317857
340.0940857 0.0033286457781083467
343.0822449 0.004687987388503757
358.1093445 0.004722957270528758
359.1109314 0.0015062747013055511
361.0915833 0.021001292144456514
368.0862122 0.0023864821605870663
371.0758362 0.03133174830430883
373.091095  0.0030153214081498868
374.0647583 0.0012346998245903538
375.104248  0.002558113993241678
385.0895386 0.0025403505697719248
386.0991211 0.05888739472196142
388.9199524 0.0009750301834316383
388.9694214 0.0027622259421427532
389.0862122 0.44158209664254333
389.2062073 0.0030890883168267083
389.2327271 0.0011810016657883477
403.1051025 0.0035521312653213092
404.1097412 0.3779386388323492
404.2372742 0.002826716511761345
404.2689209 0.0010526898790287765
418.9326172 0.0010202477778479063
418.9562073 0.0011379856299091418
419.0001831 0.006426205045045484
419.0299377 0.004350313705979332
419.1329651 1.0
419.2689209 0.007312935624361418
419.3004761 0.004053272824146366


