PRECURSORMZ: 663.2283465160002
COMPOUNDNAME: casmi2022challengebonus179
FORMULA: C32H38O15
SMILES: CC1C(C(C(C(O1)OC2=C(OC3=C(C(=CC(=C3C2=O)O)O)CC=C(C)C)C4=CC=C(C=C4)O)OC5C(C(C(C(O5)CO)O)O)O)O)O
INCHIKEY: FWINXQRXURMYOG-JVZFEXMQSA-N
PRECURSORTYPE: [M+H]+
PRECURSORINTENSITY: 13312978.80566
IONMODE: positive
CHARGE: 1
PARENTMASS: 662.2210705160002
NUM PEAKS: 56
53.03887558 0.003212673377901177
55.05451584 0.007645170494373459
57.03368759 0.04973116136860104
59.04947281 0.005363411603023324
61.0285759  0.009969913519867615
69.03354645 0.026517209900315503
71.01282501 0.0032804399266104286
71.04916382 0.33016025505888114
71.05843353 0.00232448236572655
73.02848816 0.013805698269160342
74.76007843 0.009677140650351829
74.76543427 0.006932398288081382
75.04405212 0.02040150290151662
81.0333786  0.008224215392411815
81.78981018 0.0015379590983926872
83.04909515 0.04508086044390922
85.02839661 0.3881603010547812
85.03287506 0.006367369127000139
85.04072571 0.0025702318955607337
87.04395294 0.011765984998135191
95.76576233 0.0017075348378653118
97.02842712 0.02628209796592424
99.04386902 0.008084551665707838
109.0283966 0.0037196881591947373
111.0439148 0.01840578101386811
113.9099503 0.0016198385926843057
121.0288391 0.008513364886985402
127.0390396 0.009601992598144623
129.0543518 0.023633858247024235
138.1877136 0.0014662211746685246
147.065918  0.0014720642410784041
220.5094604 0.002169988935793696
229.0485229 0.007141034540278529
292.0847168 0.0016626667619978157
295.0600891 0.008171996325438647
298.9537964 0.002746530002800407
299.0546875 1.0
299.085022  0.013054361121303384
299.1160583 0.007701345056306067
299.1317139 0.007684547587346621
300.0578308 0.002098808402016479
311.0535278 0.027339392059063383
313.0695801 0.0038337593616465976
323.0549316 0.012906350837444798
325.0686646 0.0035244154273907677
337.0696411 0.022255463987707478
341.0653992 0.09355251018559461
347.0907593 0.003857119376957657
355.1169128 0.14033494307368533
363.0879517 0.010943634964515208
365.0631714 0.017287398615918322
373.0681763 0.0032198416349399723
391.0794373 0.02382692705398699
409.0922852 0.0020555397880216222
507.7558289 0.0017802389495358306
543.7429199 0.0017734936691173422


PRECURSORMZ: 663.2283465160002
COMPOUNDNAME: casmi2022challengebonus179
FORMULA: C32H38O15
SMILES: CC1C(C(C(C(O1)OC2=C(OC3=C(C(=CC(=C3C2=O)O)O)CC=C(C)C)C4=CC=C(C=C4)O)OC5C(C(C(C(O5)CO)O)O)O)O)O
INCHIKEY: FWINXQRXURMYOG-JVZFEXMQSA-N
PRECURSORTYPE: [M+H]+
PRECURSORINTENSITY: 13312978.80566
IONMODE: positive
CHARGE: 1
PARENTMASS: 662.2210705160002
NUM PEAKS: 56
53.03887558 0.003212673377901177
55.05451584 0.007645170494373459
57.03368759 0.04973116136860104
59.04947281 0.005363411603023324
61.0285759  0.009969913519867615
69.03354645 0.026517209900315503
71.01282501 0.0032804399266104286
71.04916382 0.33016025505888114
71.05843353 0.00232448236572655
73.02848816 0.013805698269160342
74.76007843 0.009677140650351829
74.76543427 0.006932398288081382
75.04405212 0.02040150290151662
81.0333786  0.008224215392411815
81.78981018 0.0015379590983926872
83.04909515 0.04508086044390922
85.02839661 0.3881603010547812
85.03287506 0.006367369127000139
85.04072571 0.0025702318955607337
87.04395294 0.011765984998135191
95.76576233 0.0017075348378653118
97.02842712 0.02628209796592424
99.04386902 0.008084551665707838
109.0283966 0.0037196881591947373
111.0439148 0.01840578101386811
113.9099503 0.0016198385926843057
121.0288391 0.008513364886985402
127.0390396 0.009601992598144623
129.0543518 0.023633858247024235
138.1877136 0.0014662211746685246
147.065918  0.0014720642410784041
220.5094604 0.002169988935793696
229.0485229 0.007141034540278529
292.0847168 0.0016626667619978157
295.0600891 0.008171996325438647
298.9537964 0.002746530002800407
299.0546875 1.0
299.085022  0.013054361121303384
299.1160583 0.007701345056306067
299.1317139 0.007684547587346621
300.0578308 0.002098808402016479
311.0535278 0.027339392059063383
313.0695801 0.0038337593616465976
323.0549316 0.012906350837444798
325.0686646 0.0035244154273907677
337.0696411 0.022255463987707478
341.0653992 0.09355251018559461
347.0907593 0.003857119376957657
355.1169128 0.14033494307368533
363.0879517 0.010943634964515208
365.0631714 0.017287398615918322
373.0681763 0.0032198416349399723
391.0794373 0.02382692705398699
409.0922852 0.0020555397880216222
507.7558289 0.0017802389495358306
543.7429199 0.0017734936691173422


