PRECURSORMZ: 436.2329832999999
COMPOUNDNAME: casmi2022challengebonus85
FORMULA: C23H30O7
SMILES: CC=CC1=CC(=C(C(=C1)OC)OC(C)C(C2=CC(=C(C(=C2)OC)OC)OC)O)OC
INCHIKEY: FLBWVIKFCMUTDS-SZNDQCEHSA-N
PRECURSORTYPE: [M+NH4]+
PRECURSORINTENSITY: 21514468.28906
IONMODE: positive
CHARGE: 1
PARENTMASS: 418.1991602999999
NUM PEAKS: 76
50.95388794 0.005830363790823071
51.90869141 0.005279751801398638
55.05434418 0.008235733779695187
57.03348923 0.008418208824509018
60.8573494  0.008194886001973822
67.05431366 0.007640388833167988
69.06996918 0.00929085155011308
77.03889465 0.006627253317650546
79.05417633 0.04645297088988433
81.06994629 0.013502601375968794
91.05401611 0.028415321289120467
91.13129425 0.005636290201695791
93.06977081 0.029728723097088575
95.08542633 0.04548961918465198
103.0540848 0.03050262491262066
105.0699387 0.4436255336350274
107.0494308 0.02092106703507222
107.0856247 0.04227438487363506
109.0645599 0.007823139248169398
109.1008682 0.027092973249692853
115.0535278 0.007114624353692432
117.0695038 0.0062894514888872525
118.0412064 0.030862345968355836
119.0852127 0.032101821379773056
120.0572357 0.007568548410784471
121.0643234 0.007537618759302956
121.1009445 0.02672421477237063
123.0802765 0.011178943740721287
131.0852051 0.008961986953783738
132.0565796 0.00816728419021221
133.0647278 0.39848158262750893
133.1007385 0.013400530826371463
134.0722046 0.009340758347083524
134.1033936 0.0068902174485225625
135.0805206 0.04497361744823837
137.0489044 0.007555400234237619
137.0596771 0.16034146344834757
138.3918457 0.006147637641994547
145.1010132 0.010518958792275648
146.1047516 0.007543273747080284
148.0515747 0.025705460265178587
148.1201782 0.007290941065222021
149.0961761 0.006984695220132261
150.0674286 0.16066250069208507
151.074646  0.007713736892331068
155.0852966 0.0076200630336878215
156.0884705 0.007154660419291761
157.1005096 0.011844995232388153
158.105835  0.007733402163321695
159.1168365 0.007856980984381999
165.0909271 0.4912757349098769
171.1156616 0.007641601901838386
172.1202393 0.00977253220220965
178.0621643 0.030724922446156166
182.1030121 0.006930308708146453
186.1356049 0.010052897449195257
187.1472778 0.007400219834440258
188.1522064 0.011825071389391336
192.078064  0.008169328168925983
193.0858307 1.0
193.1018219 0.012462611567761406
197.1324921 0.008866957241928415
201.1636047 0.007424218436293901
208.1090698 0.038290739352659905
211.1476288 0.00678039093860411
212.1507111 0.006190176636621018
215.2848969 0.04848886727885511
225.1623535 0.008629746522930037
240.066864  0.0070862744229239156
240.1828308 0.023981945257049803
241.1921082 0.008305773796994941
304.2548828 0.011135220474307045
349.0386963 0.0060572148313851005
384.5964966 0.007921755371751302
418.31427   0.010683871338447608
436.3269958 0.010074200542871148


