PRECURSORMZ: 1087.5330596440003
COMPOUNDNAME: casmi2022challengebonus237
FORMULA: C52H82O21
SMILES: CC1C(C(C(C(O1)OC2C(OC(C(C2O)O)OCC3C(C(C(C(O3)OC(=O)C45CCC(=C)CC4C6=CCC7C8(CCC(C(C8CCC7(C6(CC5)C)C)(C)C)OC9C(C(C(CO9)O)O)O)C)O)O)O)CO)O)O)O
INCHIKEY: HMQSPQLUUHPGBG-PQXYRCRZSA-N
PRECURSORTYPE: [M+FA-H]-
PRECURSORINTENSITY: 12083852.81738
IONMODE: negative
CHARGE: -1
PARENTMASS: 1042.5348586440002
NUM PEAKS: 54
81.0331192  0.0024882421807953963
83.01247406 0.019248248488578704
85.02816772 0.013473678079620783
87.00708008 0.005664792610203551
89.01751709 0.001357238823952136
89.02307129 0.024634521490018203
89.5971756  0.0013693894772179767
95.01250458 0.0023037198182181778
97.02819824 0.027284284584289678
99.00736237 0.0024440244553510437
101.0230331 0.2056875264034591
103.0386963 0.01197782913986567
111.0068054 0.001569523456522632
113.0163193 0.0015371158711653817
113.0232086 0.025126114939083316
115.0386963 0.01526445465668495
119.0336151 0.014965331359108684
125.0230408 0.04872192811275574
127.0386581 0.002159782640285052
128.1125641 0.0013321546733000844
131.0336609 0.020150995511842275
133.3078003 0.001217008148779109
139.0386047 0.0014501369665994213
141.0177917 0.0018808617638752484
142.8358002 0.011968618474503418
142.8499298 0.0070390567328882225
143.0336914 0.03662758775415558
145.0492554 0.008622779204746253
155.0341797 0.001411652733859968
161.0444489 0.035714451476897
163.0600281 0.02548143587850794
175.0603943 0.0015480786905535
179.0544434 0.003107447626249108
203.0532684 0.003615030066132212
205.0709076 0.03310587270717156
214.759903  0.0013598336160204265
216.5500946 0.007530720301733444
221.0658875 0.03392773032053984
245.0657959 0.007364678103257873
247.0819397 0.010012968201874639
263.076416  0.007001117129125763
287.4625244 0.0013190928230971928
323.0987549 0.010052158435139825
349.1130371 0.0020446800606947597
367.1233826 0.016975113141435
391.1237183 0.0025894572017448043
409.1344299 0.0032095991785081623
469.1622009 0.0020410451185321667
498.9873657 0.0012592100506134947
571.0831299 0.0033805471200926453
571.3634644 1.0
571.5796509 0.009392727048846953
680.2675781 0.0016325355643298427
717.4133301 0.004700740247410556


PRECURSORMZ: 1087.5330596440003
COMPOUNDNAME: casmi2022challengebonus237
FORMULA: C52H82O21
SMILES: CC1C(C(C(C(O1)OC2C(OC(C(C2O)O)OCC3C(C(C(C(O3)OC(=O)C45CCC(=C)CC4C6=CCC7C8(CCC(C(C8CCC7(C6(CC5)C)C)(C)C)OC9C(C(C(CO9)O)O)O)C)O)O)O)CO)O)O)O
INCHIKEY: HMQSPQLUUHPGBG-PQXYRCRZSA-N
PRECURSORTYPE: [M+FA-H]-
PRECURSORINTENSITY: 12083852.81738
IONMODE: negative
CHARGE: -1
PARENTMASS: 1042.5348586440002
NUM PEAKS: 54
81.0331192  0.0024882421807953963
83.01247406 0.019248248488578704
85.02816772 0.013473678079620783
87.00708008 0.005664792610203551
89.01751709 0.001357238823952136
89.02307129 0.024634521490018203
89.5971756  0.0013693894772179767
95.01250458 0.0023037198182181778
97.02819824 0.027284284584289678
99.00736237 0.0024440244553510437
101.0230331 0.2056875264034591
103.0386963 0.01197782913986567
111.0068054 0.001569523456522632
113.0163193 0.0015371158711653817
113.0232086 0.025126114939083316
115.0386963 0.01526445465668495
119.0336151 0.014965331359108684
125.0230408 0.04872192811275574
127.0386581 0.002159782640285052
128.1125641 0.0013321546733000844
131.0336609 0.020150995511842275
133.3078003 0.001217008148779109
139.0386047 0.0014501369665994213
141.0177917 0.0018808617638752484
142.8358002 0.011968618474503418
142.8499298 0.0070390567328882225
143.0336914 0.03662758775415558
145.0492554 0.008622779204746253
155.0341797 0.001411652733859968
161.0444489 0.035714451476897
163.0600281 0.02548143587850794
175.0603943 0.0015480786905535
179.0544434 0.003107447626249108
203.0532684 0.003615030066132212
205.0709076 0.03310587270717156
214.759903  0.0013598336160204265
216.5500946 0.007530720301733444
221.0658875 0.03392773032053984
245.0657959 0.007364678103257873
247.0819397 0.010012968201874639
263.076416  0.007001117129125763
287.4625244 0.0013190928230971928
323.0987549 0.010052158435139825
349.1130371 0.0020446800606947597
367.1233826 0.016975113141435
391.1237183 0.0025894572017448043
409.1344299 0.0032095991785081623
469.1622009 0.0020410451185321667
498.9873657 0.0012592100506134947
571.0831299 0.0033805471200926453
571.3634644 1.0
571.5796509 0.009392727048846953
680.2675781 0.0016325355643298427
717.4133301 0.004700740247410556


