PRECURSORMZ: 345.1343624239999
COMPOUNDNAME: casmi2022challengebonus99
FORMULA: C19H22O6
SMILES: COC1=C(C=CC(=C1)C2C(C3=C(O2)C(=CC(=C3)CCCO)O)CO)O
INCHIKEY: PKORXOLYTWDULG-RDTXWAMCSA-N
PRECURSORTYPE: [M-H]-
PRECURSORINTENSITY: 3363630.1875
IONMODE: negative
CHARGE: -1
PARENTMASS: 346.1416384239999
NUM PEAKS: 36
56.09950256 0.016808747958419534
92.86244202 0.022310115775216507
121.0284576 0.025165574740079886
135.0432892 0.0409906274909471
145.0281219 0.07429626235815648
146.0345612 0.020050314343659646
149.1576996 0.01885041680829009
167.0695801 0.09058981102305866
179.0694275 0.01980064680049713
181.0430603 0.01863494660887892
181.0858459 0.07962904718872611
209.0807648 0.047054065782436254
210.2082977 0.019397901361299676
216.2021637 0.04143639001638326
216.2246857 0.061255219252556455
241.0486908 0.03902131964757831
253.0499268 0.021667533620704893
254.0570984 0.019685173584503165
255.0658112 0.10811089854424913
256.0754089 0.02988105455014598
256.1098022 0.12736313521042306
267.0676575 0.038600477276752185
269.0813599 0.12523710272339966
278.5624695 0.021435486324106662
283.0965576 0.08087217343285275
284.1044617 0.14514536064273323
295.0978699 0.08454678682288233
296.1048279 0.16405641050862527
297.1122131 0.03272491061577917
299.0917664 0.024257645737715362
300.0999451 1.0
310.0855408 0.02246218258589045
311.0922546 0.1986629082279587
312.099823  0.5899061719625935
315.1243591 0.17225205895456186
316.209137  0.02504493066682007


