PRECURSORMZ: 265.191054008
COMPOUNDNAME: casmi2022challengebonus212
FORMULA: C15H24N2O2
SMILES: C1CC2C3CCC[N+]4(C3C(CCC4)CN2C(=O)C1)[O-]
INCHIKEY: XVPBINOPNYFXID-LHDUFFHYSA-N
PRECURSORTYPE: [M+H]+
PRECURSORINTENSITY: 94473178.73633
IONMODE: positive
CHARGE: 1
PARENTMASS: 264.183778008
NUM PEAKS: 35
50.88788605 0.00031125169248261673
66.29464722 0.010440736320963737
66.29924011 0.007121718185904465
74.043396   0.0003344855818058907
98.09645081 0.0022033956518674245
109.746933  0.00029639451234378297
110.9342194 0.00031170662191585153
112.0760803 0.0006587587870710823
124.1125488 0.00030293861687659006
136.1122437 0.004602030901941053
137.1198883 0.004456660050953272
148.0995789 0.0005512898953144113
148.111908  0.00954548947690727
149.120285  0.00036263551256079664
150.1276093 0.0031465269874931825
162.1275635 0.0014143609540634083
176.1065979 0.0015303679124197564
177.1377106 0.0006674147442395792
182.1785126 0.00036568690873855814
205.1333313 0.01244779960161454
206.1900482 0.0024436098895373928
217.8037567 0.0004618527477188177
220.1936493 0.003701681309267123
247.180542  0.029589576079039427
247.203064  0.00048658644349725287
248.1880035 0.014141158246088808
265.0846558 0.0011446288403971388
265.1075439 0.004733141800191994
265.1217651 0.007324490718170754
265.1387634 0.004322460815594932
265.1908569 1.0
265.243866  0.00671521114940825
265.2570801 0.007676547578276895
265.2812195 0.002825682008871034
266.3728027 0.00036713837157916737


