PRECURSORMZ: 358.1496475999999
COMPOUNDNAME: casmi2022challengebonus243
FORMULA: C16H20O8
SMILES: COC(=O)C=CC1=CC=C(C=C1)OC2C(C(C(C(O2)CO)O)O)O
INCHIKEY: KPYQJVYNSWDFQU-TXUJKZCJSA-N
PRECURSORTYPE: [M+NH4]+
PRECURSORINTENSITY: 4021020.487305
IONMODE: positive
CHARGE: 1
PARENTMASS: 340.11582459999994
NUM PEAKS: 22
61.02860641 0.004859299565894989
66.11279297 0.0027538795046714404
69.03358459 0.006633731004517456
70.70631409 0.002853772940018238
73.22922516 0.0030663772825669914
85.02842712 0.10762964042662013
97.02828217 0.02056803319743361
109.0282669 0.004979802685884411
119.0490799 0.005697576438683077
127.0388184 0.024269511939712593
137.0592804 0.005620910500457376
145.0495453 0.021291498340145404
147.0438995 1.0
147.0729523 0.003313549361776452
147.0783539 0.004737790493238986
163.3235626 0.00325773383616978
179.0700684 0.29826841026706297
179.0886078 0.00514140839790086
201.0781708 0.0034385500744512736
216.4390411 0.016502731237228438
304.2478027 0.00391765613527809
360.5100708 0.003549490471595022


PRECURSORMZ: 358.1496475999999
COMPOUNDNAME: casmi2022challengebonus243
FORMULA: C16H20O8
SMILES: COC(=O)C=CC1=CC=C(C=C1)OC2C(C(C(C(O2)CO)O)O)O
INCHIKEY: KPYQJVYNSWDFQU-TXUJKZCJSA-N
PRECURSORTYPE: [M+NH4]+
PRECURSORINTENSITY: 4021020.487305
IONMODE: positive
CHARGE: 1
PARENTMASS: 340.11582459999994
NUM PEAKS: 22
61.02860641 0.004859299565894989
66.11279297 0.0027538795046714404
69.03358459 0.006633731004517456
70.70631409 0.002853772940018238
73.22922516 0.0030663772825669914
85.02842712 0.10762964042662013
97.02828217 0.02056803319743361
109.0282669 0.004979802685884411
119.0490799 0.005697576438683077
127.0388184 0.024269511939712593
137.0592804 0.005620910500457376
145.0495453 0.021291498340145404
147.0438995 1.0
147.0729523 0.003313549361776452
147.0783539 0.004737790493238986
163.3235626 0.00325773383616978
179.0700684 0.29826841026706297
179.0886078 0.00514140839790086
201.0781708 0.0034385500744512736
216.4390411 0.016502731237228438
304.2478027 0.00391765613527809
360.5100708 0.003549490471595022


