PRECURSORMZ: 478.3163189999999
COMPOUNDNAME: casmi2022challengebonus49
FORMULA: C27H40O6
SMILES: CC1(C(CCC2(C1CC(C3=C2C(=O)CC4(C3(C(CC4C5(CCC(=O)O5)C)O)C)C)O)C)O)C
INCHIKEY: SRCUJKNQZOLYMY-UHFFFAOYSA-N
PRECURSORTYPE: [M+NH4]+
PRECURSORINTENSITY: 50089209.10938
IONMODE: positive
CHARGE: 1
PARENTMASS: 460.2824959999999
NUM PEAKS: 170
79.10194397 0.00967471109546558
81.06993103 0.06276339738279192
85.0645752  0.06956043900323877
93.06958771 0.014583329207904453
95.08531189 0.04603603215590293
97.06461334 0.02083165503385732
99.04402924 0.16861401911342702
101.0597    0.0198613991660573
101.467041  0.009764459800740982
105.06987   0.008836943376133478
107.0852127 0.052381335563645194
109.0649261 0.07269795517942046
109.1009369 0.050497653486056414
119.0854645 0.05249534366592751
121.0644989 0.04025967414572419
121.0914459 0.01860103001308016
121.1010437 0.3439175636699191
123.0803375 0.012317715862241134
123.1165237 0.018663241480584323
127.0752106 0.20499553133543763
133.0647583 0.016795251034297527
133.1009674 0.04429602751502046
135.080368  0.08852462301980914
135.1168823 0.06412000341555509
137.0958557 0.05570537738103253
137.1322327 0.1308664648776887
139.1117554 0.10564022485777622
145.1009979 0.038066416134621354
147.0801239 0.0180095147691554
147.1166229 0.047036137376841695
149.0588684 0.01634463606336515
149.0956726 0.044341849778702994
157.1007233 0.010531560798560715
159.0802155 0.15150855082894418
159.1165466 0.06633030319832049
161.096405  0.09524888457404032
161.1338348 0.010645079474962313
163.0753784 0.12084144767690048
163.1113739 0.15366122962143144
167.0693817 0.01077118070944665
167.1064911 0.013315479902290641
171.0793762 0.010765790461576386
171.1167755 0.03628958266501386
173.0958405 0.06298974841424515
173.1325226 0.06580601369318355
175.0752716 0.014223049878265344
175.1113739 0.03630343660526948
177.090683  0.06416093517082036
177.1270294 0.04223805356804893
179.1060638 0.05437158496997348
181.1217041 0.021740365128358745
183.1181641 0.013055996051349498
185.0966797 0.03357100754194406
185.1315155 0.013706939973479644
187.111496  0.061014500567478994
189.0909576 0.01492947988122855
189.1269836 0.10223094792934674
191.1069031 0.0179341863130091
191.143219  0.02207186584117285
193.1218872 0.0874140950693234
199.111496  0.046018889123713304
199.1480255 0.018338598355685055
201.092514  0.009810447081578697
201.1272583 0.08103306169709402
203.1432495 0.01694703681394718
205.1219482 0.019804065080605778
207.1369171 0.03333391914423423
209.1322327 0.018367058189369366
209.1536102 0.009702479919812464
211.1117401 0.01737705839399064
213.1274872 0.016929481238869594
215.1054382 0.009376838253604941
215.1431427 0.04359766741350431
215.4555511 0.048040668057851295
215.4813995 0.020469575517070755
217.1222992 0.04933761288823586
219.1371765 0.04541620146830465
221.1317291 0.013025273794963821
225.1269226 0.06404969860666715
227.1420441 0.06802833722593801
229.1233521 0.06474268814986006
231.1365051 0.012235227911793807
235.1327209 0.047452516913658344
237.125412  0.014318207583360462
237.1646118 0.020279265732465548
239.1426697 0.035854698704477314
241.1577911 0.04143435626567738
243.1380768 0.10677974332211576
245.1529083 0.08786229666436123
247.1319733 0.03742247794080673
251.1426849 0.012045265038253473
253.1220703 0.08494749364143897
253.1582336 0.0458161392958412
255.136795  0.013354387384612601
255.1736298 0.04163379449927614
257.1530151 0.016440261629599013
259.1697388 0.03802307662904635
261.1488953 0.047010810993910926
263.1646729 0.06233752560916233
265.1582336 0.04519319203424388
267.1378784 0.056960974162873976
267.172699  0.03644157471610748
269.1525879 0.0380536048027553
269.1879883 0.011624344716876766
271.1328125 0.26752686209258314
271.1656799 0.02038395599106483
273.1484985 0.037770544125767316
273.1838379 0.05855864775702082
279.1748962 0.016477324857692207
281.15448   0.01871000321693443
281.1894836 0.05803533710364529
283.1680603 0.010889264547942404
285.1477966 0.12360111207161097
285.1837463 0.02989779317457843
287.1637573 0.0595638985128894
287.1979065 0.014470291519006412
288.1870117 0.012777742436603805
289.1431885 0.7940346478419896
289.1969604 0.07136445904916275
293.1893005 0.03730743098052473
295.1700439 0.012521396724403468
297.1844482 0.016623775707722575
298.1928101 0.017210406068814913
299.1625977 0.05770479274025328
299.2004089 0.15415422587332178
301.1815186 0.011787277592878651
303.1591797 0.04526349309274192
304.2680054 0.011680102700976889
305.1763916 0.0184665597835551
306.1961365 0.02133663003105803
307.1545715 0.012184021963423414
307.2059937 0.045057997979469945
311.2005615 0.07338841695982715
313.1793518 0.1328209280636815
315.1948242 0.01136137206574005
315.2315674 0.01067955774682336
316.2030029 0.03896368191437182
317.2114258 0.16282427221133908
321.1825256 0.03842949888070364
323.2016296 0.019032480491671916
325.2159729 0.04570060103448354
327.1936035 0.011202831833897548
327.233429  0.016346280609332145
329.2104797 0.08575125470043866
331.1928101 0.012527052312358393
337.1769409 0.017878656165094924
339.194397  0.022278943618978628
343.2370605 0.012002299634069957
347.1941528 0.014153581406323001
347.2370911 0.038105896488998994
349.2155457 0.06453712927995994
361.2508545 0.051771203384303834
363.2290039 0.015845506048808834
365.2481689 0.11555023260218132
367.2271118 0.06740059696606059
371.2368774 0.0793372929049704
379.2622681 0.12104559640020177
381.2407532 0.01297414566718356
383.2583313 0.12505129033214293
389.2470093 0.28449560616321673
397.2750549 0.0950279566063688
401.2686462 0.039328009789897755
407.2573853 0.9710763330955886
415.2841797 0.040832939992441614
425.2009583 0.015678740274339017
425.2681885 1.0
425.318634  0.019420342063760948
443.208313  0.01566616896742595
443.2782593 0.6152084370691177
461.2882385 0.05331435005983222


PRECURSORMZ: 478.3163189999999
COMPOUNDNAME: casmi2022challengebonus49
FORMULA: C27H40O6
SMILES: CC1(C(CCC2(C1CC(C3=C2C(=O)CC4(C3(C(CC4C5(CCC(=O)O5)C)O)C)C)O)C)O)C
INCHIKEY: SRCUJKNQZOLYMY-UHFFFAOYSA-N
PRECURSORTYPE: [M+NH4]+
PRECURSORINTENSITY: 50089209.10938
IONMODE: positive
CHARGE: 1
PARENTMASS: 460.2824959999999
NUM PEAKS: 170
79.10194397 0.00967471109546558
81.06993103 0.06276339738279192
85.0645752  0.06956043900323877
93.06958771 0.014583329207904453
95.08531189 0.04603603215590293
97.06461334 0.02083165503385732
99.04402924 0.16861401911342702
101.0597    0.0198613991660573
101.467041  0.009764459800740982
105.06987   0.008836943376133478
107.0852127 0.052381335563645194
109.0649261 0.07269795517942046
109.1009369 0.050497653486056414
119.0854645 0.05249534366592751
121.0644989 0.04025967414572419
121.0914459 0.01860103001308016
121.1010437 0.3439175636699191
123.0803375 0.012317715862241134
123.1165237 0.018663241480584323
127.0752106 0.20499553133543763
133.0647583 0.016795251034297527
133.1009674 0.04429602751502046
135.080368  0.08852462301980914
135.1168823 0.06412000341555509
137.0958557 0.05570537738103253
137.1322327 0.1308664648776887
139.1117554 0.10564022485777622
145.1009979 0.038066416134621354
147.0801239 0.0180095147691554
147.1166229 0.047036137376841695
149.0588684 0.01634463606336515
149.0956726 0.044341849778702994
157.1007233 0.010531560798560715
159.0802155 0.15150855082894418
159.1165466 0.06633030319832049
161.096405  0.09524888457404032
161.1338348 0.010645079474962313
163.0753784 0.12084144767690048
163.1113739 0.15366122962143144
167.0693817 0.01077118070944665
167.1064911 0.013315479902290641
171.0793762 0.010765790461576386
171.1167755 0.03628958266501386
173.0958405 0.06298974841424515
173.1325226 0.06580601369318355
175.0752716 0.014223049878265344
175.1113739 0.03630343660526948
177.090683  0.06416093517082036
177.1270294 0.04223805356804893
179.1060638 0.05437158496997348
181.1217041 0.021740365128358745
183.1181641 0.013055996051349498
185.0966797 0.03357100754194406
185.1315155 0.013706939973479644
187.111496  0.061014500567478994
189.0909576 0.01492947988122855
189.1269836 0.10223094792934674
191.1069031 0.0179341863130091
191.143219  0.02207186584117285
193.1218872 0.0874140950693234
199.111496  0.046018889123713304
199.1480255 0.018338598355685055
201.092514  0.009810447081578697
201.1272583 0.08103306169709402
203.1432495 0.01694703681394718
205.1219482 0.019804065080605778
207.1369171 0.03333391914423423
209.1322327 0.018367058189369366
209.1536102 0.009702479919812464
211.1117401 0.01737705839399064
213.1274872 0.016929481238869594
215.1054382 0.009376838253604941
215.1431427 0.04359766741350431
215.4555511 0.048040668057851295
215.4813995 0.020469575517070755
217.1222992 0.04933761288823586
219.1371765 0.04541620146830465
221.1317291 0.013025273794963821
225.1269226 0.06404969860666715
227.1420441 0.06802833722593801
229.1233521 0.06474268814986006
231.1365051 0.012235227911793807
235.1327209 0.047452516913658344
237.125412  0.014318207583360462
237.1646118 0.020279265732465548
239.1426697 0.035854698704477314
241.1577911 0.04143435626567738
243.1380768 0.10677974332211576
245.1529083 0.08786229666436123
247.1319733 0.03742247794080673
251.1426849 0.012045265038253473
253.1220703 0.08494749364143897
253.1582336 0.0458161392958412
255.136795  0.013354387384612601
255.1736298 0.04163379449927614
257.1530151 0.016440261629599013
259.1697388 0.03802307662904635
261.1488953 0.047010810993910926
263.1646729 0.06233752560916233
265.1582336 0.04519319203424388
267.1378784 0.056960974162873976
267.172699  0.03644157471610748
269.1525879 0.0380536048027553
269.1879883 0.011624344716876766
271.1328125 0.26752686209258314
271.1656799 0.02038395599106483
273.1484985 0.037770544125767316
273.1838379 0.05855864775702082
279.1748962 0.016477324857692207
281.15448   0.01871000321693443
281.1894836 0.05803533710364529
283.1680603 0.010889264547942404
285.1477966 0.12360111207161097
285.1837463 0.02989779317457843
287.1637573 0.0595638985128894
287.1979065 0.014470291519006412
288.1870117 0.012777742436603805
289.1431885 0.7940346478419896
289.1969604 0.07136445904916275
293.1893005 0.03730743098052473
295.1700439 0.012521396724403468
297.1844482 0.016623775707722575
298.1928101 0.017210406068814913
299.1625977 0.05770479274025328
299.2004089 0.15415422587332178
301.1815186 0.011787277592878651
303.1591797 0.04526349309274192
304.2680054 0.011680102700976889
305.1763916 0.0184665597835551
306.1961365 0.02133663003105803
307.1545715 0.012184021963423414
307.2059937 0.045057997979469945
311.2005615 0.07338841695982715
313.1793518 0.1328209280636815
315.1948242 0.01136137206574005
315.2315674 0.01067955774682336
316.2030029 0.03896368191437182
317.2114258 0.16282427221133908
321.1825256 0.03842949888070364
323.2016296 0.019032480491671916
325.2159729 0.04570060103448354
327.1936035 0.011202831833897548
327.233429  0.016346280609332145
329.2104797 0.08575125470043866
331.1928101 0.012527052312358393
337.1769409 0.017878656165094924
339.194397  0.022278943618978628
343.2370605 0.012002299634069957
347.1941528 0.014153581406323001
347.2370911 0.038105896488998994
349.2155457 0.06453712927995994
361.2508545 0.051771203384303834
363.2290039 0.015845506048808834
365.2481689 0.11555023260218132
367.2271118 0.06740059696606059
371.2368774 0.0793372929049704
379.2622681 0.12104559640020177
381.2407532 0.01297414566718356
383.2583313 0.12505129033214293
389.2470093 0.28449560616321673
397.2750549 0.0950279566063688
401.2686462 0.039328009789897755
407.2573853 0.9710763330955886
415.2841797 0.040832939992441614
425.2009583 0.015678740274339017
425.2681885 1.0
425.318634  0.019420342063760948
443.208313  0.01566616896742595
443.2782593 0.6152084370691177
461.2882385 0.05331435005983222


