PRECURSORMZ: 578.2079503239997
COMPOUNDNAME: casmi2022challengebonus244
FORMULA: C24H32O15
SMILES: COC1=C2C(=CC(=C1OC3C(C(C(C(O3)CO)O)O)OC4C(C(C(C(O4)CO)O)O)O)CCC(=O)O)C=CO2
INCHIKEY: ZDGWEUBHJUPSEX-ASDNCSIPSA-N
PRECURSORTYPE: [M+NH4]+
PRECURSORINTENSITY: 2594651.625
IONMODE: positive
CHARGE: 1
PARENTMASS: 560.1741273239998
NUM PEAKS: 19
51.22245407 0.0089033658120516
54.58141327 0.009715923686654922
57.03375244 0.01058645510007809
61.02860641 0.03945150217733962
69.03350067 0.06701524723580717
81.03312683 0.013187885778908223
85.02841949 0.42605031161153906
97.02812958 0.11933203180570419
99.04418945 0.02026642814696428
109.0285721 0.022762963881513526
127.0390549 0.06979404186286631
145.0491486 0.04303084000311505
177.0544434 1.0
187.0387421 0.1786031556216123
191.0696716 0.08062522501858733
194.4965363 0.010580455159195493
219.0651245 0.0976272359539285
220.5200806 0.01344528592421007
417.4440308 0.011762523956120968


PRECURSORMZ: 578.2079503239997
COMPOUNDNAME: casmi2022challengebonus244
FORMULA: C24H32O15
SMILES: COC1=C2C(=CC(=C1OC3C(C(C(C(O3)CO)O)O)OC4C(C(C(C(O4)CO)O)O)O)CCC(=O)O)C=CO2
INCHIKEY: ZDGWEUBHJUPSEX-ASDNCSIPSA-N
PRECURSORTYPE: [M+NH4]+
PRECURSORINTENSITY: 2594651.625
IONMODE: positive
CHARGE: 1
PARENTMASS: 560.1741273239998
NUM PEAKS: 19
51.22245407 0.0089033658120516
54.58141327 0.009715923686654922
57.03375244 0.01058645510007809
61.02860641 0.03945150217733962
69.03350067 0.06701524723580717
81.03312683 0.013187885778908223
85.02841949 0.42605031161153906
97.02812958 0.11933203180570419
99.04418945 0.02026642814696428
109.0285721 0.022762963881513526
127.0390549 0.06979404186286631
145.0491486 0.04303084000311505
177.0544434 1.0
187.0387421 0.1786031556216123
191.0696716 0.08062522501858733
194.4965363 0.010580455159195493
219.0651245 0.0976272359539285
220.5200806 0.01344528592421007
417.4440308 0.011762523956120968


