PRECURSORMZ: 315.08741223199996
COMPOUNDNAME: casmi2022challengebonus185
FORMULA: C17H16O6
SMILES: COC1CC(=O)C2=C(C1=O)C3=C(C(=C(C=C3C=C2)OC)O)OC
INCHIKEY: CKOCCDGTCOMPKL-LBPRGKRZSA-N
PRECURSORTYPE: [M-H]-
PRECURSORINTENSITY: 822721.5249023
IONMODE: negative
CHARGE: -1
PARENTMASS: 316.09468823199995
NUM PEAKS: 13
82.21613312 0.032240333684732794
104.6688995 0.03754722756118756
133.0391235 0.02908739347821726
142.3283844 0.031080714719054558
179.5303497 0.03216677335066032
179.9541779 0.03336575909442908
225.442215  0.031795362627561545
240.2225342 0.029688848032966057
255.1008606 0.05996992830764654
285.039856  1.0
300.0638123 0.7272746528180016
315.0899048 0.033146350135387186
320.3669739 0.031072490812002928


