PRECURSORMZ: 1133.5385389480007
COMPOUNDNAME: casmi2022challengebonus41
FORMULA: C53H84O23
SMILES: CC1C(C(C(C(O1)OC2C(C(COC2OC3CCC4(C(C3(C)C)CCC5(C4CC(C6=C7C(C8(CCC7(CCC65C)C(=O)O8)C)(C)O)O)C)C)O)OC9C(C(C(C(O9)CO)O)O)OC1C(C(C(C(O1)CO)O)O)O)O)O)O
INCHIKEY: OKFRAIRVSPMCCP-GAKNCEQWSA-N
PRECURSORTYPE: [M+FA-H]-
PRECURSORINTENSITY: 37879035.91406
IONMODE: negative
CHARGE: -1
PARENTMASS: 1088.5403379480006
NUM PEAKS: 21
83.01244354 0.3330718827713048
85.02810669 1.0
85.03391266 0.03676726467640885
85.99949646 0.14425915125768754
87.00726318 0.16511390134096615
89.02292633 0.09753173284573016
93.67056274 0.023548157932720547
95.01261139 0.19653099462022036
97.02816772 0.04489242163114423
99.00720215 0.04458460949661839
101.0229492 0.5229256052639647
103.6039505 0.019426184252544308
106.4726868 0.022617868484936184
113.0229034 0.313095803620302
131.0335693 0.04258408467787635
144.7563934 0.022613521549260794
369.2796936 0.045634901497016614
397.2737427 0.4278726118335861
407.2948303 0.08887946634184285
423.3260498 0.03068906444471008
529.3134766 0.04597243383959596


