PRECURSORMZ: 478.24354798399986
COMPOUNDNAME: casmi2022challengebonus242
FORMULA: C25H32O8
SMILES: CC=CC1=CC(=C(C(=C1)OC)OC(C)C(C2=CC(=C(C(=C2)OC)OC)OC)OC(=O)C)OC
INCHIKEY: KDVYEAVKWMGOPV-CMJOXMDJSA-N
PRECURSORTYPE: [M+NH4]+
PRECURSORINTENSITY: 40313902.15234
IONMODE: positive
CHARGE: 1
PARENTMASS: 460.2097249839999
NUM PEAKS: 41
53.03891373 0.0366512933065405
55.01813889 0.045564995985565175
55.33687973 0.018538556347058876
56.30951309 0.01791864599188514
57.03383255 0.02632935379776691
79.05433655 0.4255093420476706
90.04668427 0.029563980743774566
91.05442047 0.2962928418973929
92.06200409 0.021797493294648904
95.04905701 0.08665042082515446
103.0541763 0.3222942838557133
104.0620728 0.044867597633218216
105.0446625 0.03847015338120722
105.069931  1.0
107.0489655 0.19080567550332142
109.0650787 0.030296605744675957
115.0540848 0.09949662926255629
118.0411224 0.323738759276365
119.0491333 0.04490074512291409
120.0569077 0.105293383686224
121.0645599 0.11857552668282781
122.0728149 0.1598552572088732
125.3811646 0.01963958576284534
131.0490723 0.026710964485483612
132.0566406 0.03600481096100576
133.0647888 0.7593904508289899
134.0726318 0.087820404757891
135.0441437 0.15533932416809496
135.0807343 0.13805915002013
137.0596466 0.22498495522350695
144.192215  0.017992847302355584
148.0516815 0.1300091996614296
149.0599518 0.028471327489442807
150.067337  0.3395581223629123
153.539856  0.02150711048519217
165.0908966 0.4143155249167758
178.0626068 0.035542969827314676
193.0415955 0.019219302295173685
193.0852509 0.15781162688083517
217.6301727 0.08047463021415625
449.6224365 0.020425535448459514


PRECURSORMZ: 478.24354798399986
COMPOUNDNAME: casmi2022challengebonus242
FORMULA: C25H32O8
SMILES: CC=CC1=CC(=C(C(=C1)OC)OC(C)C(C2=CC(=C(C(=C2)OC)OC)OC)OC(=O)C)OC
INCHIKEY: KDVYEAVKWMGOPV-CMJOXMDJSA-N
PRECURSORTYPE: [M+NH4]+
PRECURSORINTENSITY: 40313902.15234
IONMODE: positive
CHARGE: 1
PARENTMASS: 460.2097249839999
NUM PEAKS: 41
53.03891373 0.0366512933065405
55.01813889 0.045564995985565175
55.33687973 0.018538556347058876
56.30951309 0.01791864599188514
57.03383255 0.02632935379776691
79.05433655 0.4255093420476706
90.04668427 0.029563980743774566
91.05442047 0.2962928418973929
92.06200409 0.021797493294648904
95.04905701 0.08665042082515446
103.0541763 0.3222942838557133
104.0620728 0.044867597633218216
105.0446625 0.03847015338120722
105.069931  1.0
107.0489655 0.19080567550332142
109.0650787 0.030296605744675957
115.0540848 0.09949662926255629
118.0411224 0.323738759276365
119.0491333 0.04490074512291409
120.0569077 0.105293383686224
121.0645599 0.11857552668282781
122.0728149 0.1598552572088732
125.3811646 0.01963958576284534
131.0490723 0.026710964485483612
132.0566406 0.03600481096100576
133.0647888 0.7593904508289899
134.0726318 0.087820404757891
135.0441437 0.15533932416809496
135.0807343 0.13805915002013
137.0596466 0.22498495522350695
144.192215  0.017992847302355584
148.0516815 0.1300091996614296
149.0599518 0.028471327489442807
150.067337  0.3395581223629123
153.539856  0.02150711048519217
165.0908966 0.4143155249167758
178.0626068 0.035542969827314676
193.0415955 0.019219302295173685
193.0852509 0.15781162688083517
217.6301727 0.08047463021415625
449.6224365 0.020425535448459514


