PRECURSORMZ: 249.07891671599998
COMPOUNDNAME: casmi2022challengebonus13
FORMULA: C13H13ClN2O
SMILES: C1CC(C2=C(C1)C3=C(N2)C=CC(=C3)Cl)C(=O)N
INCHIKEY: FUZYTVDVLBBXDL-UHFFFAOYSA-N
PRECURSORTYPE: [M+H]+
PRECURSORINTENSITY: 2237450.533203
IONMODE: positive
CHARGE: 1
PARENTMASS: 248.071640716
NUM PEAKS: 23
51.01237869 0.009177840650683177
51.01472092 0.006757859965349356
54.54161072 0.0039022738813022013
59.64419937 0.005180859931192095
61.47827148 0.004324733280811374
64.14647675 0.0042141091193245465
83.99219513 0.004040955475456502
111.8718109 0.004828353733072439
154.064682  0.03936633061825275
157.3874664 0.004682179729816063
167.0728149 0.06953811950360644
168.0807037 0.30700521151251514
168.0941162 0.004210200702374499
169.0884552 0.8700045479760874
169.1246948 0.003928141384811379
169.1307831 0.004697043475552042
173.596283  0.004456269375548335
189.0343933 0.008143392538725897
202.0419769 0.05880722052876706
204.057373  1.0
234.5583649 0.004954797865708779
244.2423401 0.005652390743413766
262.29776   0.004621057900195063


