PRECURSORMZ: 273.206035376
COMPOUNDNAME: casmi2022challengebonus65
FORMULA: C15H28O4
SMILES: CC(C)CCCCCCC(C1CC(OC1=O)CO)O
INCHIKEY: BYJHCUIKVIAEAC-UHFFFAOYSA-N
PRECURSORTYPE: [M+H]+
PRECURSORINTENSITY: 11463490.75586
IONMODE: positive
CHARGE: 1
PARENTMASS: 272.198759376
NUM PEAKS: 86
51.80570221 0.012916077405588238
53.03907776 0.015310239778311495
55.01844406 0.012965779572632325
55.05451202 0.5114790969416732
57.0337944  0.07553823561473086
57.07017136 0.4017091922009243
59.04946518 0.0223531627582494
65.84355927 0.01315764260564397
67.05014038 0.013494438321585865
67.05437469 0.808285617742397
67.05856323 0.017899678136563103
68.82972717 0.011726397601352002
69.07000732 0.5101401793193833
71.04925537 0.1159029199033112
71.08557892 0.20698525270813597
79.04974365 0.01975618268900635
79.05434418 0.2785480101665457
81.06991577 1.0
81.07543945 0.026754893064151557
83.04930878 0.10659301370087625
83.08555603 0.43249597562560205
85.0647583  0.020021381072516685
85.10125732 0.07588323863821284
88.28182983 0.01201126391228117
91.0542984  0.08250067934620282
93.06990814 0.4511838874406149
95.04907227 0.04634888905679145
95.08558655 0.9850695442052511
95.20724487 0.012363615533636256
97.06491089 0.0486824164851163
97.1011734  0.1753015180689199
99.04395294 0.17342732177997108
105.0698166 0.14720144794259446
107.0854721 0.3845915217758678
109.0647583 0.06677350062031023
109.1011963 0.5288339411744689
111.0443497 0.015974160105215296
111.0802689 0.06158395890997769
113.0597076 0.05552941461944789
115.1113052 0.012703739232321355
117.0698395 0.026700968156913564
119.0854568 0.21243407066634182
121.0646896 0.018865216693723656
121.1010971 0.26494368018111064
123.0804367 0.16953589160254762
123.1166153 0.18442974344937643
125.0599747 0.021829082077627987
125.0960388 0.026271469132098765
127.0753555 0.10921716864816862
129.0547638 0.128816316898813
131.0856323 0.0871462960718464
133.1012115 0.10895209385705419
135.0805664 0.058826679503247555
135.1168976 0.11136612113257764
137.0961761 0.0555687942465927
137.1325226 0.029132537828130866
139.1108398 0.020406251655623268
141.0911102 0.24180753384639558
143.0703583 0.027079426097061987
145.101532  0.1449738494969254
147.1166229 0.029226694635076825
149.0961151 0.12490956126429748
149.1320648 0.017665206625063136
151.1119843 0.02404960743347289
153.090683  0.09267697339360577
155.1065674 0.10334870300903815
157.085907  0.15084373644860877
159.116806  0.05845837416345457
161.1331177 0.020732227887239902
163.1116638 0.07617568914501995
163.1481476 0.053892232498060216
167.1065216 0.26972961032388704
171.1007843 0.16681129723485086
175.1483459 0.05435193441462398
177.127182  0.020498598348937292
181.1222229 0.3691970589294311
185.1177063 0.08464956488473073
195.1375427 0.12116489705700963
199.1329498 0.03021662852880005
201.1634979 0.02002662602481811
212.2172241 0.013519648595508372
219.1741028 0.01733837812088335
220.5446167 0.012994217410477158
234.368866  0.012237851258858588
237.1854095 0.11271809835136808
243.5456543 0.013804517481279385


PRECURSORMZ: 273.206035376
COMPOUNDNAME: casmi2022challengebonus65
FORMULA: C15H28O4
SMILES: CC(C)CCCCCCC(C1CC(OC1=O)CO)O
INCHIKEY: BYJHCUIKVIAEAC-UHFFFAOYSA-N
PRECURSORTYPE: [M+H]+
PRECURSORINTENSITY: 11463490.75586
IONMODE: positive
CHARGE: 1
PARENTMASS: 272.198759376
NUM PEAKS: 86
51.80570221 0.012916077405588238
53.03907776 0.015310239778311495
55.01844406 0.012965779572632325
55.05451202 0.5114790969416732
57.0337944  0.07553823561473086
57.07017136 0.4017091922009243
59.04946518 0.0223531627582494
65.84355927 0.01315764260564397
67.05014038 0.013494438321585865
67.05437469 0.808285617742397
67.05856323 0.017899678136563103
68.82972717 0.011726397601352002
69.07000732 0.5101401793193833
71.04925537 0.1159029199033112
71.08557892 0.20698525270813597
79.04974365 0.01975618268900635
79.05434418 0.2785480101665457
81.06991577 1.0
81.07543945 0.026754893064151557
83.04930878 0.10659301370087625
83.08555603 0.43249597562560205
85.0647583  0.020021381072516685
85.10125732 0.07588323863821284
88.28182983 0.01201126391228117
91.0542984  0.08250067934620282
93.06990814 0.4511838874406149
95.04907227 0.04634888905679145
95.08558655 0.9850695442052511
95.20724487 0.012363615533636256
97.06491089 0.0486824164851163
97.1011734  0.1753015180689199
99.04395294 0.17342732177997108
105.0698166 0.14720144794259446
107.0854721 0.3845915217758678
109.0647583 0.06677350062031023
109.1011963 0.5288339411744689
111.0443497 0.015974160105215296
111.0802689 0.06158395890997769
113.0597076 0.05552941461944789
115.1113052 0.012703739232321355
117.0698395 0.026700968156913564
119.0854568 0.21243407066634182
121.0646896 0.018865216693723656
121.1010971 0.26494368018111064
123.0804367 0.16953589160254762
123.1166153 0.18442974344937643
125.0599747 0.021829082077627987
125.0960388 0.026271469132098765
127.0753555 0.10921716864816862
129.0547638 0.128816316898813
131.0856323 0.0871462960718464
133.1012115 0.10895209385705419
135.0805664 0.058826679503247555
135.1168976 0.11136612113257764
137.0961761 0.0555687942465927
137.1325226 0.029132537828130866
139.1108398 0.020406251655623268
141.0911102 0.24180753384639558
143.0703583 0.027079426097061987
145.101532  0.1449738494969254
147.1166229 0.029226694635076825
149.0961151 0.12490956126429748
149.1320648 0.017665206625063136
151.1119843 0.02404960743347289
153.090683  0.09267697339360577
155.1065674 0.10334870300903815
157.085907  0.15084373644860877
159.116806  0.05845837416345457
161.1331177 0.020732227887239902
163.1116638 0.07617568914501995
163.1481476 0.053892232498060216
167.1065216 0.26972961032388704
171.1007843 0.16681129723485086
175.1483459 0.05435193441462398
177.127182  0.020498598348937292
181.1222229 0.3691970589294311
185.1177063 0.08464956488473073
195.1375427 0.12116489705700963
199.1329498 0.03021662852880005
201.1634979 0.02002662602481811
212.2172241 0.013519648595508372
219.1741028 0.01733837812088335
220.5446167 0.012994217410477158
234.368866  0.012237851258858588
237.1854095 0.11271809835136808
243.5456543 0.013804517481279385


