PRECURSORMZ: 944.5213455280002
COMPOUNDNAME: casmi2022challengebonus197
FORMULA: C47H74O18
SMILES: CC1(CCC2(CCC3(C(=CCC4C3(CCC5C4(CCC(C5(C)C)OC6C(C(C(C(O6)C(=O)O)O)O)OC7C(C(C(CO7)O)O)O)C)C)C2C1)C)C(=O)OC8C(C(C(C(O8)CO)O)O)O)C
INCHIKEY: YTPBUIWNJRGZFW-HNBASAHXSA-N
PRECURSORTYPE: [M+NH4]+
PRECURSORINTENSITY: 9674190.988281
IONMODE: positive
CHARGE: 1
PARENTMASS: 926.4875225280002
NUM PEAKS: 47
130.0774231 0.028835989469733276
131.0856018 0.3086097439512128
133.1011353 0.9238947494200399
133.1104889 0.018391349223822157
135.1167755 0.7567422834078332
137.1324615 0.20942348624885695
141.0182953 0.2165639134873466
143.0855713 0.11647990925478284
145.1011353 0.5817003487621208
147.116745  0.7340557767053406
149.1324158 0.7278963884151143
153.0908051 0.09996991149952869
157.1009979 0.08040606926110348
159.1167908 0.37506410547485214
161.1324615 0.4651479086451188
163.1480103 0.20015898427645606
167.1066437 0.022327139473204853
171.1165314 0.07936665983639601
173.132309  0.2884678897776487
175.1478882 0.3014506104973276
177.1645203 0.07072507989696164
179.1065674 0.04156746665621323
185.1328583 0.07036374126197088
186.140564  0.02595470307652999
187.1480713 0.1605336537465699
189.1635895 0.9078384406417882
190.1677094 0.02112665671453298
191.178833  0.18007277645509223
199.1482849 0.043109177603252405
201.1637115 1.0
201.1807404 0.01788578592114566
203.1794586 0.5480540239548859
205.1947479 0.09967326027305204
213.1630859 0.1294311718214294
215.1791687 0.6265945910058897
217.1945801 0.04164647047619446
221.1598511 0.031223144604881212
227.1794128 0.01902362858139708
229.1959686 0.06719505343567898
241.1951904 0.08520660871529491
243.2104187 0.15346506579696204
255.2109222 0.0996179428398781
257.2251892 0.03726935101476074
269.2250366 0.026985872657936505
506.9850769 0.017119503687165635
565.2460327 0.020931415862479326
1498.981934 0.021017862529659218


PRECURSORMZ: 944.5213455280002
COMPOUNDNAME: casmi2022challengebonus197
FORMULA: C47H74O18
SMILES: CC1(CCC2(CCC3(C(=CCC4C3(CCC5C4(CCC(C5(C)C)OC6C(C(C(C(O6)C(=O)O)O)O)OC7C(C(C(CO7)O)O)O)C)C)C2C1)C)C(=O)OC8C(C(C(C(O8)CO)O)O)O)C
INCHIKEY: YTPBUIWNJRGZFW-HNBASAHXSA-N
PRECURSORTYPE: [M+NH4]+
PRECURSORINTENSITY: 9674190.988281
IONMODE: positive
CHARGE: 1
PARENTMASS: 926.4875225280002
NUM PEAKS: 47
130.0774231 0.028835989469733276
131.0856018 0.3086097439512128
133.1011353 0.9238947494200399
133.1104889 0.018391349223822157
135.1167755 0.7567422834078332
137.1324615 0.20942348624885695
141.0182953 0.2165639134873466
143.0855713 0.11647990925478284
145.1011353 0.5817003487621208
147.116745  0.7340557767053406
149.1324158 0.7278963884151143
153.0908051 0.09996991149952869
157.1009979 0.08040606926110348
159.1167908 0.37506410547485214
161.1324615 0.4651479086451188
163.1480103 0.20015898427645606
167.1066437 0.022327139473204853
171.1165314 0.07936665983639601
173.132309  0.2884678897776487
175.1478882 0.3014506104973276
177.1645203 0.07072507989696164
179.1065674 0.04156746665621323
185.1328583 0.07036374126197088
186.140564  0.02595470307652999
187.1480713 0.1605336537465699
189.1635895 0.9078384406417882
190.1677094 0.02112665671453298
191.178833  0.18007277645509223
199.1482849 0.043109177603252405
201.1637115 1.0
201.1807404 0.01788578592114566
203.1794586 0.5480540239548859
205.1947479 0.09967326027305204
213.1630859 0.1294311718214294
215.1791687 0.6265945910058897
217.1945801 0.04164647047619446
221.1598511 0.031223144604881212
227.1794128 0.01902362858139708
229.1959686 0.06719505343567898
241.1951904 0.08520660871529491
243.2104187 0.15346506579696204
255.2109222 0.0996179428398781
257.2251892 0.03726935101476074
269.2250366 0.026985872657936505
506.9850769 0.017119503687165635
565.2460327 0.020931415862479326
1498.981934 0.021017862529659218


