PRECURSORMZ: 403.2115146799999
COMPOUNDNAME: casmi2022challengebonus215
FORMULA: C23H30O6
SMILES: CC1CC2=CC(=C(C(=C2C3=C(C(=C(C=C3CC1C)OC)OC)OC)O)OC)OC
INCHIKEY: FYSHYFPJBONYCQ-QWHCGFSZSA-N
PRECURSORTYPE: [M+H]+
PRECURSORINTENSITY: 233437129.8906
IONMODE: positive
CHARGE: 1
PARENTMASS: 402.2042386799999
NUM PEAKS: 296
53.03874588 0.003999657524048156
53.29552841 0.00340777535239634
55.01818848 0.00557693024043522
55.05447769 0.05143350257950914
56.76531219 0.007952444728783203
56.76832199 0.007877862855828519
57.64167404 0.00363135360050475
59.04940033 0.0055247947584688775
67.05428314 0.006452884511611305
68.09657288 0.003754394493067911
69.06987762 0.018076043236440305
71.0586319  0.0036963788676888354
71.76988983 0.004851482748546719
75.04400635 0.017901927215640965
79.05423737 0.006930581798350034
81.28284454 0.003517721262788606
83.08551025 0.006926620215944279
85.02831268 0.0052629065035835745
87.08032227 0.005421000079238156
91.05425262 0.016775946252998372
93.07010651 0.0041520763566098105
94.57067108 0.003515345126811766
95.04878235 0.004954655532551732
105.069458  0.005144226605533197
107.0493622 0.005408084263088795
109.0648804 0.005269543577679788
111.9927521 0.0032637352259495276
115.0551224 0.0037943304162377203
117.0698013 0.0038017370297499186
121.0649033 0.005434670385671159
123.0804443 0.003788775252736918
125.0598984 0.0052560091201711715
128.0624847 0.004210063103924121
129.0702362 0.01515460805018014
131.0852356 0.00598205735715344
137.0597382 0.007354618353222874
138.0681305 0.004515064682569969
141.0697937 0.017342350040228202
143.0857544 0.0045112267470894035
145.0639954 0.011095068808342476
147.0807343 0.004970448986844904
148.0513458 0.01826962876715738
151.0756073 0.004128444744766195
153.0699768 0.02270339925701474
155.0492401 0.006834063984706724
155.0847321 0.005011619752333387
156.0578003 0.00455097109887183
157.0647125 0.021622830881514593
158.0725861 0.003885549308363353
159.0447083 0.004663760278443505
159.0802917 0.01908602548698927
161.0597687 0.004860617165145124
161.0957336 0.007796302252800121
165.0553894 0.006077358224743566
165.0701752 0.023897415313309855
166.0623169 0.014418612743452986
166.0771637 0.004861324881098514
167.0492706 0.0070807273984614056
167.0700073 0.026758279775559224
167.0847473 0.007404745792854801
168.057312  0.026191548974750935
169.0647125 0.04836367481368881
170.072403  0.029365197857466906
171.0444794 0.005527855833333941
171.0803375 0.03235203901328609
173.0595398 0.013276098071899308
173.0962219 0.006464782681027689
174.0676422 0.004988091450749634
175.0747986 0.015544248796251629
177.0906219 0.004682909689248986
180.057785  0.011646981501326693
181.0646973 0.061092201663917975
181.085556  0.029755401522434655
182.0724487 0.050024610944299115
183.0433044 0.02499248454465497
183.0800629 0.04214769008280856
184.0519409 0.05372021905237205
184.0872192 0.005022958256719963
185.0596313 0.03777272672134481
185.096283  0.01998173520159759
186.0667114 0.006385865844491839
187.0751801 0.04556005562393592
188.0834808 0.014377212173646306
189.0905609 0.027536697366159102
191.068985  0.005519067546779406
194.0726318 0.007558208709814359
195.0806274 0.04724978521878321
196.0519104 0.03515353017437913
196.0878754 0.008229462649205396
197.0594635 0.134286534855053
197.0954895 0.015500739720983816
198.0672607 0.12453081848850042
199.0752563 0.36303000148168063
199.1069183 0.005052565594303349
200.0466461 0.023260374966198837
200.0823822 0.0069478085808154745
201.0550232 0.024622298666102178
201.0904846 0.025829352965271925
203.070282  0.01354844018622945
204.1141815 0.0056758656768526395
205.0845032 0.007916675788338955
207.0799561 0.004574213873674388
208.0899506 0.0069552233289938035
209.0588684 0.02475115991228201
209.0964355 0.018581755906600602
210.0675659 0.06221180504831393
210.1035614 0.006204556338432932
211.0390015 0.023921690783977732
211.0753479 0.13595356873139505
211.1105804 0.006426809652795269
212.047348  0.05073574345746374
212.0827637 0.061652849361393564
213.0549469 0.11983435685221064
213.0904846 0.14647662490021043
214.0631866 0.05728902398479627
215.0699921 0.1517543442240851
215.1059265 0.0059954559657376715
215.8591461 0.019463879101837066
216.0772095 0.028307509043926572
217.0861816 0.015468648463097354
218.0936584 0.00453163662441187
219.1018524 0.0052074089641053235
220.0886993 0.004922547598599702
221.0594788 0.005075668859581762
221.0961304 0.01607508131542419
221.1174774 0.00533869515425878
222.0673218 0.007959893642559283
222.1035461 0.015633990433007887
223.0754852 0.03572916843460077
223.1111755 0.007399472902268741
224.0455475 0.006233811851706156
224.0830078 0.023975540646831165
225.0544434 0.1061243988026188
225.0908661 0.0412369784169216
226.0622559 0.13218203815738905
226.0990906 0.015777455031825937
227.0046692 0.005970942962818771
227.0701294 1.0
227.1088715 0.02378257497767327
228.0414886 0.01935376175335609
228.0778503 0.22055880809153808
228.1034851 0.00545911261699472
229.0496063 0.05745562194715742
229.0859833 0.08538485274666416
230.093277  0.0051912958174332065
231.0650177 0.01418121552788803
231.1021729 0.017897601200192546
235.0753479 0.015536545267425652
235.1118469 0.0059275323170111405
236.0849609 0.0044299000157122705
236.1191711 0.0048399538929726794
237.0533295 0.0278218369372464
237.0914459 0.019138552653129817
237.1282043 0.01449196302795545
238.0615845 0.03332877162949155
238.0992737 0.015099398071149616
239.032196  0.004932674444466079
239.0383911 0.004611754951135256
239.069931  0.0925390963768171
239.1042786 0.03505947391070703
240.0408936 0.006709386397318023
240.0458527 0.007142590720920404
240.0779114 0.13811270435452713
240.1078644 0.007130835314894618
240.1163177 0.006091226203563551
241.0498657 0.057778659300815424
241.0857697 0.38038799936567824
241.1073303 0.007707142244672224
241.1153412 0.00735925348598427
242.0576782 0.05493352402899679
242.0934143 0.15196580649709146
243.0651855 0.28519113836283555
243.1008453 0.034312376411644405
244.0443115 0.004769100137505793
244.0727234 0.1388250277828133
245.0797119 0.026945606494155172
249.0894775 0.028127960693085007
250.0995331 0.026017881987522022
251.0703888 0.04103105747848361
251.1063538 0.020817606312146898
252.0776215 0.03524645083865935
252.1121216 0.006390933334758093
253.0510559 0.04901474745987566
253.0822449 0.040025853530819944
253.1214294 0.015824113849819643
254.0573883 0.06069970727696776
254.0939484 0.03114430465602779
254.1274109 0.007701862032886646
255.0652313 0.14748355339709385
255.1011505 0.09071827175647043
256.040863  0.013286632464538843
256.0727539 0.21577088677700518
256.10495   0.011556633018477067
257.0460205 0.02742783601012874
257.0803833 0.2126053953374853
257.1116333 0.01126030014679363
258.0552063 0.005869767646082204
258.0884399 0.08019103111539731
259.0609131 0.027656514490534582
259.0965881 0.13885919338056316
260.0679016 0.0048996127209102
262.0976868 0.004128296287109306
263.0750427 0.0037065626562181285
263.1065674 0.021106256805136298
264.1105042 0.005724981570751187
265.085968  0.02870866847723944
265.1222229 0.043584207044199165
266.0655212 0.004216066487528737
266.0940247 0.02909784717427469
266.1290894 0.014067507537776868
267.0653992 0.039509539763757845
267.1017151 0.045480784929423375
267.1325073 0.005354672045273205
268.0732422 0.07523731879738345
268.1072083 0.013039630648673115
269.0521545 0.008860335292455956
269.08078   0.34720702160431965
269.1137695 0.017212367837055532
269.1503906 0.00983779758821336
270.056427  0.008850861660279891
270.088562  0.06333666668089691
270.123291  0.006497307109885621
271.0603638 0.16794449039193107
271.0965576 0.34764616342073096
272.0679321 0.18704449123533326
272.1026917 0.015136513298838531
273.0753174 0.040975985788777314
273.1117859 0.029459878863497855
274.0829773 0.021740552515894747
275.0906982 0.03878860009710579
278.0940247 0.0196179805900879
278.1260376 0.009123782962838554
279.0665894 0.006432459585156497
279.1014404 0.03891986432366069
279.1372375 0.014241099686077377
280.0754395 0.006413564789400913
280.1089478 0.015300456106174547
281.080658  0.02936851680124832
281.1170654 0.046980570070113796
282.0885925 0.01923850980361328
282.1253662 0.03263044308081699
283.06073   0.015484240991137092
283.0964966 0.0655413238956976
283.1302185 0.006975778003373401
284.0710144 0.006345561014212993
284.1041565 0.046997138758089245
285.075531  0.07974016236429164
285.1125488 0.03445862469321245
285.1452942 0.0050843640042090976
286.083313  0.08789341458038294
286.1174316 0.006033708419751688
287.0604248 0.012633099895314005
287.0912781 0.46780728655755405
287.1200867 0.00948373136406559
288.064209  0.004274819113659273
288.0995789 0.004510484865538264
289.1068115 0.006774718341415243
292.1081848 0.005782183729517171
293.0828552 0.007038952634012703
293.1162415 0.03470582743533162
294.0888977 0.007417278872962702
294.1248474 0.0267827228203494
295.0960388 0.04045915140308283
295.1338806 0.02201960247591644
296.1040039 0.018055429992464567
296.1410217 0.013558204225986387
297.0745544 0.015633761035422997
297.1124878 0.017389392814463285
297.1491089 0.036393363924190014
298.0837402 0.017138724704572353
298.1194458 0.013253130655545281
299.0926208 0.031027383472794916
299.1262512 0.007850988359331812
300.0991821 0.02088463270719919
301.0704651 0.04895306391353816
301.1075745 0.03709058941213722
302.0790405 0.010559236723365853
302.1150818 0.03164406275058026
303.0861511 0.029389845895843578
309.1113586 0.024593309969878047
309.1490479 0.012033246360953853
310.1209412 0.02836864594070008
311.090271  0.01389789649508083
311.1281738 0.02106216528777351
312.0982666 0.004622564702223323
313.1066284 0.007135761668703501
313.1431885 0.025899996032886022
315.1226501 0.013901973589745646
316.0913391 0.012559628404286191
323.1283875 0.004865980757258543
325.1433716 0.24269949507281321
327.1227722 0.013943896405117931
331.1184692 0.025275640884139552
340.1677856 0.014225948056941934
341.1387329 0.007382983934021376
342.1435852 0.004615562788351137


