PRECURSORMZ: 243.101570308
COMPOUNDNAME: casmi2022challengebonus106
FORMULA: C15H14O3
SMILES: COC1=C(C=C2CCC3=C(C2=C1)C=CC(=C3)O)O
INCHIKEY: HIFMHFYYAXWFIN-UHFFFAOYSA-N
PRECURSORTYPE: [M+H]+
PRECURSORINTENSITY: 7719640.969727
IONMODE: positive
CHARGE: 1
PARENTMASS: 242.094294308
NUM PEAKS: 35
60.7756691  0.004999959278127242
68.50705719 0.0041867678957196825
141.6263428 0.0043367237940187325
145.0637054 0.004086366679762864
153.0688324 0.005159491792423805
156.7196503 0.004127715948352552
157.890213  0.004561401276786751
165.06987   0.024629743130263674
167.0855408 0.008423676886188402
169.0995331 0.005882792038784897
179.0848694 0.00636771978370778
182.0717316 0.01617290887341291
183.0803528 0.11361465270294177
184.0794983 0.004882091256339098
193.0640869 0.005875079734647557
197.0957947 0.09633326655062474
199.0757599 0.007373137153081036
200.079483  0.12655668819525404
202.1010895 0.00403719000452606
210.0680847 0.03357239543250919
211.0579681 0.0038844210706515444
211.0750732 0.23459998180682756
211.0983124 0.0056389399602987025
212.0827789 0.15865785730190787
215.1064758 0.04142287838868764
225.0656128 0.007356875435645649
225.0906219 0.14464084110496178
227.0703125 0.0076057758927630574
228.0760498 0.25333331287066496
241.0857086 0.01605393124599234
242.0902863 0.007839637160615018
243.03862   0.004819583617718007
243.0991516 1.0
269.4644775 0.004814818635417151
291.9935608 0.0040545356039269126


PRECURSORMZ: 243.101570308
COMPOUNDNAME: casmi2022challengebonus106
FORMULA: C15H14O3
SMILES: COC1=C(C=C2CCC3=C(C2=C1)C=CC(=C3)O)O
INCHIKEY: HIFMHFYYAXWFIN-UHFFFAOYSA-N
PRECURSORTYPE: [M+H]+
PRECURSORINTENSITY: 7719640.969727
IONMODE: positive
CHARGE: 1
PARENTMASS: 242.094294308
NUM PEAKS: 35
60.7756691  0.004999959278127242
68.50705719 0.0041867678957196825
141.6263428 0.0043367237940187325
145.0637054 0.004086366679762864
153.0688324 0.005159491792423805
156.7196503 0.004127715948352552
157.890213  0.004561401276786751
165.06987   0.024629743130263674
167.0855408 0.008423676886188402
169.0995331 0.005882792038784897
179.0848694 0.00636771978370778
182.0717316 0.01617290887341291
183.0803528 0.11361465270294177
184.0794983 0.004882091256339098
193.0640869 0.005875079734647557
197.0957947 0.09633326655062474
199.0757599 0.007373137153081036
200.079483  0.12655668819525404
202.1010895 0.00403719000452606
210.0680847 0.03357239543250919
211.0579681 0.0038844210706515444
211.0750732 0.23459998180682756
211.0983124 0.0056389399602987025
212.0827789 0.15865785730190787
215.1064758 0.04142287838868764
225.0656128 0.007356875435645649
225.0906219 0.14464084110496178
227.0703125 0.0076057758927630574
228.0760498 0.25333331287066496
241.0857086 0.01605393124599234
242.0902863 0.007839637160615018
243.03862   0.004819583617718007
243.0991516 1.0
269.4644775 0.004814818635417151
291.9935608 0.0040545356039269126


