PRECURSORMZ: 223.097582992
COMPOUNDNAME: casmi2022challengebonus87
FORMULA: C12H16O4
SMILES: CC(C(CC1C2=C(CO1)C(=CC=C2)O)O)O
INCHIKEY: VWNBIHJYLBWFKS-UHFFFAOYSA-N
PRECURSORTYPE: [M-H]-
PRECURSORINTENSITY: 39619049.58398
IONMODE: negative
CHARGE: -1
PARENTMASS: 224.104858992
NUM PEAKS: 76
55.77313232 0.005172027487418574
55.7758522  0.0033158090237303517
57.03336716 0.003790311417577005
65.03804779 0.00267112308910092
68.99681091 0.01020654548639677
69.03302002 0.01593412119389168
71.01252747 0.005510669308451744
73.02809906 0.07834100279775735
79.05393982 0.010387758291337933
81.03317261 0.005352662668148289
87.03765106 0.0036322053721766947
87.04376221 0.12309269739136953
87.05872345 0.0021851111970130357
89.6002121  0.0023863290538107765
91.01698303 0.0035765893399134986
93.03321075 0.08536891807019738
95.04888916 0.009722867151346098
105.0333252 0.005056070994167317
106.0409851 0.11685192719938953
106.0487518 0.005289691778144617
107.0219269 0.0022491963644199822
107.0312729 0.00479837268375736
107.0488205 0.524231545227048
107.0557175 0.010838102783910127
107.0702362 0.004000713947107519
108.0208359 0.0034891576317523623
109.0282288 0.018591690487590632
114.3585587 0.0024728829075017426
114.8743668 0.002380789682400035
119.0488281 0.048954155214721885
121.0281601 0.23747197743453435
121.0553513 0.0029513603857958246
121.0645065 0.07634077164777213
122.0356445 0.009467831285557293
123.0436554 0.014691409718879663
130.041153  0.004864055273159904
131.0375977 0.004892218707289839
131.0489044 0.17909561608262847
133.0645142 0.02292194845051562
134.0360107 0.27203404421458466
135.0191803 0.005346866276351987
135.0438232 0.7077495024228622
135.0529175 0.011243603935762656
135.0693359 0.0024499841374540582
135.0739746 0.0033075875057873697
143.0489197 0.19710933847086576
143.0618744 0.005704345811009755
144.1796417 0.0025416600402572605
145.064743  0.003042764715665481
146.0359039 0.004532270612726856
147.0440216 0.06192028380380828
149.0235443 0.018024373957804724
149.0595245 1.0
149.0892029 0.005284612267249503
149.0944366 0.009247844224053055
151.0751343 0.026950459107544407
157.0648041 0.0023816249986531287
158.0368042 0.003634069217742736
159.0439911 0.016765697666021342
159.0801849 0.01011020314117527
160.0523987 0.004811918195401233
161.0596313 0.2268093747968912
169.0645905 0.0041490187395121355
172.052002  0.004480477422870815
176.9773102 0.002904224682943951
177.0545502 0.051525075503454754
177.0909576 0.0030808883613919345
179.0701752 0.01457461141670009
185.0591278 0.005281810118167907
186.2802887 0.0022744192883199965
187.075592  0.02581164207849058
203.0690918 0.004525672263595121
205.0858765 0.02621120758185707
220.5826263 0.003936695273650518
221.0807495 0.012097071022194181
223.0967865 0.456776930119571


