PRECURSORMZ: 1128.66499004
COMPOUNDNAME: casmi2022challengebonus127
FORMULA: C54H90N6O18
SMILES: CC1C(=O)NC(C(=O)OC(C(=O)NC(C(=O)OC(C(=O)NC(C(=O)OC(C(=O)NC(C(=O)OC(C(=O)NC(C(=O)OC(C(=O)NC(C(=O)O1)C(C)C)C(C)C)C(C)C)C)C(C)C)C(C)C)C(C)C)C)C(C)C)C(C)C)C(C)C
INCHIKEY: FCFNRCROJUBPLU-DNDCDFAISA-N
PRECURSORTYPE: [M+NH4]+
PRECURSORINTENSITY: 611572772.8125
IONMODE: positive
CHARGE: 1
PARENTMASS: 1110.63116704
NUM PEAKS: 39
78.05654907 0.0013791732924894658
81.06970978 0.001719752330994243
82.0650177  0.00237164156227273
83.04917145 0.09876491308909825
83.05355835 0.0013002343051707961
83.08558655 0.006977314096443065
84.08096313 0.0015982769492149983
98.060112   0.04234344726220944
98.09648132 0.04408483320101928
98.10367584 0.0017122913407970487
104.6842194 0.001257229274345323
109.1009445 0.0017325557974373637
111.1168976 0.008442308239464378
112.0759354 0.001736000307248497
112.111969  0.009689587069123451
116.0704422 0.0013417218519780488
117.0910797 0.0014524978600168215
126.0913239 0.05285881280985083
126.1169891 0.0018428421336057338
126.1276093 0.06386817356642813
144.0749359 0.008608345604767748
144.0808411 0.004256413530453513
144.1018066 1.0
144.1296997 0.006806194813242878
144.1356049 0.007277084362699651
154.0856323 0.0047883741401899774
154.1224518 0.09384249723805982
154.1368256 0.002852034606139002
172.0820007 0.0016686395223925342
172.0970917 0.05659907315394139
172.1329956 0.41069892353728205
182.1174774 0.008132895470973258
198.1487274 0.0012274640340565269
200.1281128 0.01837266727087
225.1582031 0.0019019675180567044
264.2875671 0.0016325038852795528
272.1483459 0.001936900770012269
292.3960876 0.0012682875528446597
304.2535706 0.0027880838502140157


PRECURSORMZ: 1128.66499004
COMPOUNDNAME: casmi2022challengebonus127
FORMULA: C54H90N6O18
SMILES: CC1C(=O)NC(C(=O)OC(C(=O)NC(C(=O)OC(C(=O)NC(C(=O)OC(C(=O)NC(C(=O)OC(C(=O)NC(C(=O)OC(C(=O)NC(C(=O)O1)C(C)C)C(C)C)C(C)C)C)C(C)C)C(C)C)C(C)C)C)C(C)C)C(C)C)C(C)C
INCHIKEY: FCFNRCROJUBPLU-DNDCDFAISA-N
PRECURSORTYPE: [M+NH4]+
PRECURSORINTENSITY: 611572772.8125
IONMODE: positive
CHARGE: 1
PARENTMASS: 1110.63116704
NUM PEAKS: 39
78.05654907 0.0013791732924894658
81.06970978 0.001719752330994243
82.0650177  0.00237164156227273
83.04917145 0.09876491308909825
83.05355835 0.0013002343051707961
83.08558655 0.006977314096443065
84.08096313 0.0015982769492149983
98.060112   0.04234344726220944
98.09648132 0.04408483320101928
98.10367584 0.0017122913407970487
104.6842194 0.001257229274345323
109.1009445 0.0017325557974373637
111.1168976 0.008442308239464378
112.0759354 0.001736000307248497
112.111969  0.009689587069123451
116.0704422 0.0013417218519780488
117.0910797 0.0014524978600168215
126.0913239 0.05285881280985083
126.1169891 0.0018428421336057338
126.1276093 0.06386817356642813
144.0749359 0.008608345604767748
144.0808411 0.004256413530453513
144.1018066 1.0
144.1296997 0.006806194813242878
144.1356049 0.007277084362699651
154.0856323 0.0047883741401899774
154.1224518 0.09384249723805982
154.1368256 0.002852034606139002
172.0820007 0.0016686395223925342
172.0970917 0.05659907315394139
172.1329956 0.41069892353728205
182.1174774 0.008132895470973258
198.1487274 0.0012274640340565269
200.1281128 0.01837266727087
225.1582031 0.0019019675180567044
264.2875671 0.0016325038852795528
272.1483459 0.001936900770012269
292.3960876 0.0012682875528446597
304.2535706 0.0027880838502140157


