PRECURSORMZ: 580.3843985599999
COMPOUNDNAME: casmi2022challengebonus112
FORMULA: C32H50O8
SMILES: CC(=O)OC(C)(C)CCC(=O)C(C)(C1C(CC2(C1(CC(=O)C3(C2CC=C4C3CC(C(C4(C)C)O)O)C)C)C)O)O
INCHIKEY: LKYNAQSYQLFTCM-MLIAOTSXSA-N
PRECURSORTYPE: [M+NH4]+
PRECURSORINTENSITY: 54490013.50195
IONMODE: positive
CHARGE: 1
PARENTMASS: 562.3505755599999
NUM PEAKS: 109
55.05449677 0.24305582290974176
57.07014847 0.016014033480521002
59.04921341 0.06216295250624481
67.05435181 0.299896459428736
69.03347778 0.08996810220695936
69.06611633 0.024985457666158232
69.06998444 0.5427044148046868
71.01291656 0.17465473321077013
79.05419159 0.16560056108672214
81.06990051 0.26823926502020873
83.04875946 0.06886216660306546
83.08556366 0.03149417519349776
85.06452179 0.029094445967132804
91.05445099 0.20854086282547565
93.06417084 0.01709623400620153
93.07001495 0.3112774855093136
95.04882812 0.06621530982112783
95.07854462 0.017701096983981677
95.0855484  1.0
97.06472778 0.0818909077195011
97.10115051 0.14419036355462098
105.0698013 0.298523422293951
107.0491486 0.02030632873267565
107.0855255 0.36210341798657303
109.064888  0.16295180150365185
109.1009903 0.13718806545410378
111.0440903 0.1093708546118181
111.0800171 0.02989433725174788
113.0960236 0.5145668789696056
117.0694427 0.09454363418988514
119.0854034 0.31410444392861864
121.0645447 0.12349715961122773
121.1011887 0.2501447941052389
123.0803757 0.13661338930884304
125.0956726 0.02879990946693701
128.0625458 0.016644260847738505
129.0695648 0.07297860502487696
131.0853882 0.28068374551160424
133.1009369 0.2382180567410868
135.0806885 0.17891980657714388
135.116394  0.07827794645030335
137.0957642 0.05610948266683076
139.1114502 0.02713147000710218
142.0774689 0.057146257590867715
143.0856934 0.1745553445717131
144.0926208 0.029380047356189713
145.1009521 0.27421897362947173
147.0799255 0.032815116854943975
147.1165619 0.12477894283349117
149.095993  0.19869484353377032
149.1318359 0.015771231273819245
155.0850525 0.059918935839237186
156.0936737 0.19089982237301087
157.1008453 0.17615512714094325
159.0802612 0.016514529326333495
159.1167603 0.23611827038638986
160.0876465 0.01825358636735813
161.0958252 0.10033833817685153
161.1321411 0.055944870233392556
163.111496  0.09132202072083986
167.0855255 0.014594290883806626
167.1073151 0.0295630610847086
168.0927887 0.026664453141800527
169.1013947 0.13868400944723647
170.1083221 0.03240004948088363
171.1167755 0.21927934618706038
171.247818  0.015320191897393554
172.0882263 0.01754141522173251
173.0957947 0.0738627682506617
173.13237   0.1311587934058135
175.1112671 0.09065200316432807
177.1274719 0.01645328480257502
179.0843964 0.017092029470100693
181.1008911 0.05398257887906046
182.1087646 0.026918625592042982
183.1161652 0.14357690651008473
184.1243286 0.02554452882858488
185.0949402 0.018444855635182805
185.1315613 0.10988115768595542
187.1110229 0.05862476427414963
187.1479645 0.02206103857825599
189.1272278 0.018297222429841206
193.1005096 0.034447994572446024
194.1084137 0.015694637235897372
195.1162109 0.07927681133378427
196.1241608 0.03470651376548759
197.1318817 0.06726888778797133
199.1120758 0.018819796809431515
199.1473541 0.02091000371821449
201.1267395 0.021005041839073202
207.1166382 0.06968881791630832
209.1323242 0.03303125090106191
210.1409302 0.01884407640086837
211.1468658 0.02461085250242713
215.1428986 0.019534848584549527
220.1234283 0.029172037968876376
221.132019  0.032265564732046136
221.1561737 0.02487827912034772
222.1385193 0.016831810089010146
223.1118164 0.018287518395757957
223.1476593 0.06071320933003198
225.1276855 0.01977154471248426
234.1396484 0.030260993941964444
235.1481781 0.01649558689071905
237.1630096 0.018645548299093116
239.1790771 0.024015036639291568
249.1622772 0.06118147962782579
398.7940674 0.015096392532691662
428.4829102 0.015182447720689895


