PRECURSORMZ: 415.2115146799999
COMPOUNDNAME: casmi2022challengebonus227
FORMULA: C24H30O6
SMILES: CCC(C)C=CC=CC(=O)OC1C=CC2=CC(=O)C(CC2(C1C)C)(C(=C)C(=O)O)O
INCHIKEY: UAMUYXWJNMHHRV-PQTIKSFYSA-N
PRECURSORTYPE: [M+H]+
PRECURSORINTENSITY: 49282934.25391
IONMODE: positive
CHARGE: 1
PARENTMASS: 414.2042386799999
NUM PEAKS: 71
53.03897858 0.005519332706177787
55.01808548 0.003962685804344354
55.05453491 0.0042151215652158165
67.05433655 0.15904349013340935
79.05432129 0.0031894999390614993
81.03349304 0.04517661171685518
81.06987    0.07094665401121747
84.24586487 0.003283886521910078
95.04916382 0.0341622326008457
95.08557129 0.020814368633319837
107.0856934 0.006675357504086887
109.0798492 0.004013481845221286
109.1011505 0.7483421962025809
119.0856094 0.014109595556296796
127.9531784 0.00330028519878789
129.0697327 0.04824952045184713
131.0491028 0.016923754436115386
136.5163269 0.0029793621445383025
137.0960388 0.08895909883168862
141.0695496 0.0031487090255293043
143.0855255 0.02302099723614615
145.0649261 0.006360141464627836
154.0776062 0.003269794383654768
156.0935364 0.01878622244546592
157.052475  0.005674464630860095
157.0646973 0.24807996278080163
157.1008606 0.03878062971118628
159.1163635 0.006114624800308751
166.062439  0.006297364042274022
166.0771332 0.0037382785254126386
167.0860596 0.003969830024051691
169.0655975 0.004476794386197309
169.08461   0.00707362399409885
169.1011047 0.20782276198066066
170.0727081 0.024953014019218088
171.0800934 0.04369987860154672
171.1164398 0.048911356561741615
173.0957489 0.012024078537015362
175.0387115 0.007344087523744754
175.1121216 0.0039199313599033335
179.0855408 0.0068672922609433265
181.0849762 0.018726409793796788
181.1015015 0.016077478326856378
182.0727234 0.06904193451423236
183.0447845 0.0038965652901561563
183.0804138 0.006838322779795251
184.0887909 0.027225410780844717
185.0596466 0.10528903706757493
187.1114197 0.00740439456351895
189.0909271 0.04528530231857552
195.1016846 0.030712558584574997
197.0959167 1.0
198.1036072 0.004430672961420977
199.1114349 0.10796916068487526
201.0547485 0.049943501825895756
201.089325  0.02180759641365717
202.5406647 0.003553222098862492
207.0811005 0.004744316514344168
215.0703735 0.003924621555460973
215.1065063 0.07434536035292563
216.1141663 0.032105904213742105
218.47258   0.005479301291178873
218.4950256 0.006126992292663932
219.1012115 0.0039150222729735186
225.0907593 0.19523122041440324
228.0783997 0.0037151773064360324
232.109024  0.011764082325274603
243.1012573 0.09945262346092414
247.1325378 0.012582748520674463
261.1126404 0.004516890715600775
347.3017883 0.0029569103292648043


PRECURSORMZ: 415.2115146799999
COMPOUNDNAME: casmi2022challengebonus227
FORMULA: C24H30O6
SMILES: CCC(C)C=CC=CC(=O)OC1C=CC2=CC(=O)C(CC2(C1C)C)(C(=C)C(=O)O)O
INCHIKEY: UAMUYXWJNMHHRV-PQTIKSFYSA-N
PRECURSORTYPE: [M+H]+
PRECURSORINTENSITY: 49282934.25391
IONMODE: positive
CHARGE: 1
PARENTMASS: 414.2042386799999
NUM PEAKS: 71
53.03897858 0.005519332706177787
55.01808548 0.003962685804344354
55.05453491 0.0042151215652158165
67.05433655 0.15904349013340935
79.05432129 0.0031894999390614993
81.03349304 0.04517661171685518
81.06987    0.07094665401121747
84.24586487 0.003283886521910078
95.04916382 0.0341622326008457
95.08557129 0.020814368633319837
107.0856934 0.006675357504086887
109.0798492 0.004013481845221286
109.1011505 0.7483421962025809
119.0856094 0.014109595556296796
127.9531784 0.00330028519878789
129.0697327 0.04824952045184713
131.0491028 0.016923754436115386
136.5163269 0.0029793621445383025
137.0960388 0.08895909883168862
141.0695496 0.0031487090255293043
143.0855255 0.02302099723614615
145.0649261 0.006360141464627836
154.0776062 0.003269794383654768
156.0935364 0.01878622244546592
157.052475  0.005674464630860095
157.0646973 0.24807996278080163
157.1008606 0.03878062971118628
159.1163635 0.006114624800308751
166.062439  0.006297364042274022
166.0771332 0.0037382785254126386
167.0860596 0.003969830024051691
169.0655975 0.004476794386197309
169.08461   0.00707362399409885
169.1011047 0.20782276198066066
170.0727081 0.024953014019218088
171.0800934 0.04369987860154672
171.1164398 0.048911356561741615
173.0957489 0.012024078537015362
175.0387115 0.007344087523744754
175.1121216 0.0039199313599033335
179.0855408 0.0068672922609433265
181.0849762 0.018726409793796788
181.1015015 0.016077478326856378
182.0727234 0.06904193451423236
183.0447845 0.0038965652901561563
183.0804138 0.006838322779795251
184.0887909 0.027225410780844717
185.0596466 0.10528903706757493
187.1114197 0.00740439456351895
189.0909271 0.04528530231857552
195.1016846 0.030712558584574997
197.0959167 1.0
198.1036072 0.004430672961420977
199.1114349 0.10796916068487526
201.0547485 0.049943501825895756
201.089325  0.02180759641365717
202.5406647 0.003553222098862492
207.0811005 0.004744316514344168
215.0703735 0.003924621555460973
215.1065063 0.07434536035292563
216.1141663 0.032105904213742105
218.47258   0.005479301291178873
218.4950256 0.006126992292663932
219.1012115 0.0039150222729735186
225.0907593 0.19523122041440324
228.0783997 0.0037151773064360324
232.109024  0.011764082325274603
243.1012573 0.09945262346092414
247.1325378 0.012582748520674463
261.1126404 0.004516890715600775
347.3017883 0.0029569103292648043


