PRECURSORMZ: 529.2806923039999
COMPOUNDNAME: casmi2022challengebonus38
FORMULA: C30H42O8
SMILES: CC(CC(=O)CC(C)C(=O)O)C1CC(=O)C2(C1(C(C(=O)C3=C2C(CC4C3(CCC(=O)C4(C)C)C)O)O)C)C
INCHIKEY: LCIUOVOXWPIXOR-LMRBZDFLSA-N
PRECURSORTYPE: [M-H]-
PRECURSORINTENSITY: 27494608.84961
IONMODE: negative
CHARGE: -1
PARENTMASS: 530.287968304
NUM PEAKS: 72
51.91953659 0.029588736173432485
51.92182922 0.010731599721067046
54.23268127 0.010505343449436154
61.60098648 0.008885928319715736
76.86145782 0.010753227185326416
79.05391693 0.03924723500396711
97.06442261 0.09747272007974854
111.4623337 0.01052022479011059
114.9990692 0.010997059097825066
121.1014633 0.010851447822213027
123.0800629 0.03707939764056443
123.3353348 0.009068638313995712
137.0594177 0.012200790702330294
139.1575928 0.010312097090722882
147.0801849 0.4392470105841853
149.0961151 0.06062581339542771
157.1006012 0.03826433769638102
163.0748901 0.023025926026737285
165.0906677 0.1085638271218941
174.1047058 0.010883056915512172
185.0953979 0.07958001230542011
191.1066895 0.013514737856335501
201.1269226 0.01688603351558625
203.14328   0.013600454847663656
207.5969849 0.011171136868183988
215.3332062 0.0872336072245678
217.1222229 0.011738323590291627
227.1431274 0.01570856750443143
228.1149139 0.01508727108027706
244.3071136 0.008978438339084823
245.1174469 0.13246602039157515
255.1745148 0.04259602915246159
263.1283875 0.05137198275901882
265.124939  0.01254366678572211
265.1564636 0.010948192772753596
267.1390686 0.08939026689530256
267.1688843 0.011935240222686678
269.1157532 0.010124351181484373
269.1519165 0.012308087351452774
281.15448   0.06466168205556166
282.1620789 0.021510856173446155
283.1359558 0.01767946207718447
283.1690369 0.18686198394129974
285.1489868 0.05953423846329341
285.5410461 0.00971651152452577
295.1682739 0.020777930752050748
299.1643677 0.09629608211264366
301.1799011 0.017303800681058475
304.271698  0.012332978283438923
307.1705627 0.014282579135177753
312.1366577 0.054856197288050745
315.1612854 0.018269740223783613
360.2099304 0.04300580452023871
374.225647  0.0165315494813437
375.231842  0.01407276918943558
385.2515259 0.012860565918570032
401.2089844 0.017165811379546356
403.2633362 0.13434346865985686
405.2460938 0.012829169699340417
406.2496643 0.018268042643280163
413.2489319 0.0693917583126819
415.228241  0.02312593173897823
416.2347107 0.06373583139057482
419.2225037 0.07649816584815264
431.2583923 0.2196783618574003
433.2366638 0.16256521595562012
434.1844177 0.0174689548786638
434.2460022 0.2681060436723493
449.269165  0.08065673656517831
467.2792358 1.0
511.2701721 0.24197317550036807
529.27948   0.05864035138105191


PRECURSORMZ: 529.2806923039999
COMPOUNDNAME: casmi2022challengebonus38
FORMULA: C30H42O8
SMILES: CC(CC(=O)CC(C)C(=O)O)C1CC(=O)C2(C1(C(C(=O)C3=C2C(CC4C3(CCC(=O)C4(C)C)C)O)O)C)C
INCHIKEY: LCIUOVOXWPIXOR-LMRBZDFLSA-N
PRECURSORTYPE: [M-H]-
PRECURSORINTENSITY: 27494608.84961
IONMODE: negative
CHARGE: -1
PARENTMASS: 530.287968304
NUM PEAKS: 72
51.91953659 0.029588736173432485
51.92182922 0.010731599721067046
54.23268127 0.010505343449436154
61.60098648 0.008885928319715736
76.86145782 0.010753227185326416
79.05391693 0.03924723500396711
97.06442261 0.09747272007974854
111.4623337 0.01052022479011059
114.9990692 0.010997059097825066
121.1014633 0.010851447822213027
123.0800629 0.03707939764056443
123.3353348 0.009068638313995712
137.0594177 0.012200790702330294
139.1575928 0.010312097090722882
147.0801849 0.4392470105841853
149.0961151 0.06062581339542771
157.1006012 0.03826433769638102
163.0748901 0.023025926026737285
165.0906677 0.1085638271218941
174.1047058 0.010883056915512172
185.0953979 0.07958001230542011
191.1066895 0.013514737856335501
201.1269226 0.01688603351558625
203.14328   0.013600454847663656
207.5969849 0.011171136868183988
215.3332062 0.0872336072245678
217.1222229 0.011738323590291627
227.1431274 0.01570856750443143
228.1149139 0.01508727108027706
244.3071136 0.008978438339084823
245.1174469 0.13246602039157515
255.1745148 0.04259602915246159
263.1283875 0.05137198275901882
265.124939  0.01254366678572211
265.1564636 0.010948192772753596
267.1390686 0.08939026689530256
267.1688843 0.011935240222686678
269.1157532 0.010124351181484373
269.1519165 0.012308087351452774
281.15448   0.06466168205556166
282.1620789 0.021510856173446155
283.1359558 0.01767946207718447
283.1690369 0.18686198394129974
285.1489868 0.05953423846329341
285.5410461 0.00971651152452577
295.1682739 0.020777930752050748
299.1643677 0.09629608211264366
301.1799011 0.017303800681058475
304.271698  0.012332978283438923
307.1705627 0.014282579135177753
312.1366577 0.054856197288050745
315.1612854 0.018269740223783613
360.2099304 0.04300580452023871
374.225647  0.0165315494813437
375.231842  0.01407276918943558
385.2515259 0.012860565918570032
401.2089844 0.017165811379546356
403.2633362 0.13434346865985686
405.2460938 0.012829169699340417
406.2496643 0.018268042643280163
413.2489319 0.0693917583126819
415.228241  0.02312593173897823
416.2347107 0.06373583139057482
419.2225037 0.07649816584815264
431.2583923 0.2196783618574003
433.2366638 0.16256521595562012
434.1844177 0.0174689548786638
434.2460022 0.2681060436723493
449.269165  0.08065673656517831
467.2792358 1.0
511.2701721 0.24197317550036807
529.27948   0.05864035138105191


