PRECURSORMZ: 791.4223274240003
COMPOUNDNAME: casmi2022challengebonus29
FORMULA: C41H62O12
SMILES: CC1C(C(C(C(O1)OC2C(C(COC2OC3CCC4(C(C3(C)C)CCC5(C4C=CC6=C7C(C8(CCC7(CCC65C)C(=O)O8)C)(C)O)C)C)O)O)O)O)O
INCHIKEY: QTRIRAUZWBJZCA-LADYGZEBSA-N
PRECURSORTYPE: [M+FA-H]-
PRECURSORINTENSITY: 43910477.14844
IONMODE: negative
CHARGE: -1
PARENTMASS: 746.4241264240003
NUM PEAKS: 34
57.03344345 0.014881178961013049
59.01249313 0.7920612193478003
59.0157814  0.027184400887223948
71.01255035 0.17739917851529077
73.0280304  0.1432408486245279
73.59169006 0.0103824854324913
83.01252747 0.049443906298561026
85.0280838  0.2212121759560647
89.02288055 0.13100769046793806
99.007164   0.0129330944157457
101.0229034 0.446670799882846
103.0384598 0.1406847720293601
108.9665527 0.010528819990228642
113.0230331 0.02851301459500663
119.0338745 0.057885899092824065
127.0386734 0.01423497557800012
131.0335846 1.0
131.0449219 0.0253376729971594
143.5657196 0.012912044309718894
145.049942  0.013423350955457188
145.8607788 0.013421890127858986
163.0601349 0.04565118218722382
172.375946  0.012067414176078949
175.0419312 0.01072149835428089
216.2591248 0.03387953364148069
329.2481689 0.2650926872129504
423.3269653 0.06070937308553647
455.3161926 0.026084739431521838
461.2905579 0.017489665494061085
555.3719482 0.06546413310533498
587.3619385 0.02114135479429629
599.3561401 0.12585331516338247
701.4282227 0.059064021578841684
745.4164429 0.08189290003414859


