PRECURSORMZ: 266.10229858
COMPOUNDNAME: casmi2022challengebonus56
FORMULA: C13H15NO5
SMILES: C1=CC=C(C(=C1)C(=O)O)NC(=O)CCCCC(=O)O
INCHIKEY: GNZBDHIIHNEXIT-UHFFFAOYSA-N
PRECURSORTYPE: [M+H]+
PRECURSORINTENSITY: 11365318.22656
IONMODE: positive
CHARGE: 1
PARENTMASS: 265.09502258000003
NUM PEAKS: 41
53.03889084 0.013958552808695245
55.04803085 0.004757950858401028
55.0512619  0.005630937776988177
55.05450821 0.5128451510497489
55.06266785 0.005330356346709427
59.04936218 0.11355913478241417
60.1407547  0.0029624267250946156
60.25321198 0.0028619799103320556
61.34496307 0.004945888767399116
65.03863525 0.032850898682092636
65.2712326  0.002539293001612436
67.05451965 0.003666769940103121
73.06475067 0.003188213588035317
76.66433716 0.002080928254110214
83.04318237 0.0028266164425760497
83.0491333  0.27633143474668337
92.04431152 0.003930011644037426
92.04945374 0.1846844967008904
101.053772  0.002340689534708088
101.0597229 0.19726201535118656
110.0601425 0.003681782870810349
111.044014  0.07396452783826916
120.0241318 0.012958252554042034
120.0443344 1.0
120.070488  0.00717021620632378
129.0544434 0.012742846061747732
130.0649719 0.003414463880273065
130.1289825 0.0028833724206238807
146.0235138 0.012386626379529994
153.4641266 0.002549399325126582
156.0813293 0.01611156511338475
160.0760193 0.004276524066857831
162.0553741 0.005527494515532122
174.0552063 0.021615079143267053
184.0757294 0.05163291966604445
184.0924835 0.004005116649590262
186.0913239 0.031216185505059665
202.0863495 0.01570897081399922
212.0702057 0.0212445317719521
221.0618896 0.0028447139507618746
230.0808258 0.010195253417715808


