PRECURSORMZ: 351.2141941239999
COMPOUNDNAME: casmi2022challengebonus194
FORMULA: C18H32O5
SMILES: CCC(CCC=CCC=CC(C(CCCCCC(=O)O)O)O)O
INCHIKEY: LBOKXCGOVQDBKC-UHFFFAOYSA-N
PRECURSORTYPE: [M+Na]+
PRECURSORINTENSITY: 21827797.78125
IONMODE: positive
CHARGE: 1
PARENTMASS: 328.2249761239999
NUM PEAKS: 24
52.66674423 0.017440694095608427
64.40351105 0.01980339733698691
67.25656891 0.018809622464743547
69.60079956 0.018918078848041652
82.6759491  0.02073078754369273
94.35496521 0.020816755851649868
95.25721741 0.01894301877133171
96.90757751 0.018548661554266602
156.2302094 0.01787134322968091
160.4131165 0.021160905201833963
163.7303467 0.018046107463636083
176.3068237 0.019408967457197467
191.0779419 0.01907775207205857
221.0732269 0.02090660019696519
237.0959015 0.020414025812589946
255.1073303 0.02161978899475489
259.1152344 0.022930481303938783
261.1326904 0.036588368469871915
297.1698914 0.21362849447085658
313.1638489 0.025687925836785603
315.1489258 0.02478355102919671
315.1801147 1.0
333.1908569 0.2315989911789611
351.2137451 0.5063107119904026


PRECURSORMZ: 351.2141941239999
COMPOUNDNAME: casmi2022challengebonus194
FORMULA: C18H32O5
SMILES: CCC(CCC=CCC=CC(C(CCCCCC(=O)O)O)O)O
INCHIKEY: LBOKXCGOVQDBKC-UHFFFAOYSA-N
PRECURSORTYPE: [M+Na]+
PRECURSORINTENSITY: 21827797.78125
IONMODE: positive
CHARGE: 1
PARENTMASS: 328.2249761239999
NUM PEAKS: 24
52.66674423 0.017440694095608427
64.40351105 0.01980339733698691
67.25656891 0.018809622464743547
69.60079956 0.018918078848041652
82.6759491  0.02073078754369273
94.35496521 0.020816755851649868
95.25721741 0.01894301877133171
96.90757751 0.018548661554266602
156.2302094 0.01787134322968091
160.4131165 0.021160905201833963
163.7303467 0.018046107463636083
176.3068237 0.019408967457197467
191.0779419 0.01907775207205857
221.0732269 0.02090660019696519
237.0959015 0.020414025812589946
255.1073303 0.02161978899475489
259.1152344 0.022930481303938783
261.1326904 0.036588368469871915
297.1698914 0.21362849447085658
313.1638489 0.025687925836785603
315.1489258 0.02478355102919671
315.1801147 1.0
333.1908569 0.2315989911789611
351.2137451 0.5063107119904026


