PRECURSORMZ: 670.2705505800001
COMPOUNDNAME: casmi2022challengebonus150
FORMULA: C31H40O15
SMILES: CC1C(C(C(C(O1)OC2C(C(OC(C2O)OCCC3=CC(=C(C=C3)O)OC)COC(=O)C=CC4=CC(=C(C=C4)O)OC)O)O)O)O
INCHIKEY: QENWCQKJIZGISX-UHFFFAOYSA-N
PRECURSORTYPE: [M+NH4]+
PRECURSORINTENSITY: 7192054.142578
IONMODE: positive
CHARGE: 1
PARENTMASS: 652.2367275800001
NUM PEAKS: 32
57.03375626 0.004107821251830905
69.03359222 0.010456990561248975
71.04920959 0.05722998304759371
71.53291321 0.0025190769409933825
81.03340149 0.01678000313275631
83.04908752 0.005221684668048758
85.02841949 0.06773471912137712
89.0386734  0.005173924762997954
97.02809143 0.004071689392927377
99.04389191 0.002516423735947944
99.73043823 0.00229221102608116
109.0281677 0.014123742445390275
111.0442963 0.0026340620759891047
114.438858  0.00225039965877663
117.0335159 0.04611325650963332
127.0387573 0.005134239797734137
129.0545502 0.0024924234767468613
129.1912384 0.0023691013843575317
135.0439453 0.0034629291260885667
137.0594482 0.0036016674487535484
145.0283356 0.4273003085141439
149.0593567 0.025357275694270192
151.0749969 0.004369083066743581
163.0385437 0.0034816825749783087
177.0180817 0.008019645215111525
177.0545197 1.0
177.102478  0.0049610439455752935
186.0543671 0.0034944199520063244
195.065033  0.004947178047644727
217.8935089 0.009607857925438888
301.2347412 0.0029830623316474143
321.0975037 0.012745395504815904


