PRECURSORMZ: 235.16925594399999
COMPOUNDNAME: casmi2022challengebonus42
FORMULA: C15H22O2
SMILES: CC1CCCC2C1(CC3=C(C(=O)OC3C2)C)C
INCHIKEY: AEQDXSFIHGWHDV-RNKJKDHYSA-N
PRECURSORTYPE: [M+H]+
PRECURSORINTENSITY: 160768667.1641
IONMODE: positive
CHARGE: 1
PARENTMASS: 234.161979944
NUM PEAKS: 87
54.28765488 0.002985938172683587
54.29072571 0.0024960826932634433
55.05452728 0.03285296221335403
58.78974915 0.009285462603587013
58.79343414 0.006889131942669581
67.05434418 0.006105255022265166
69.06996155 0.034614885481826826
70.7986145  0.0012510777253508332
79.05448151 0.002877196836449423
81.06993103 0.03899188445216074
81.07528687 0.0014601166422907063
83.04898071 0.0017813653658727306
83.08551788 0.06074648324776523
87.04408264 0.019163406085201215
91.05471802 0.005537081982386545
93.06993866 0.02046895359024364
95.08556366 0.053481778716084505
97.06484985 0.013536364409950288
97.10118103 0.2020713210877826
97.11164093 0.0019971993665650603
98.35868073 0.001252529912777363
105.0698547 0.026155648841353005
107.0729675 0.0017462830562951146
107.0854874 0.05582297262278187
109.0649185 0.006079920712780583
109.1011353 0.04830561819767704
111.0806046 0.006225090189446245
113.0594101 0.0014311059309516114
119.0853729 0.038213980308220256
121.0648804 0.007062984656758557
121.1011124 0.029009508089804334
123.0801697 0.01601099959032955
123.116539  0.02348048718214466
125.0592346 0.001941745136526646
125.0960693 0.010921892651133861
127.074791  0.0015201633317480428
133.064743  0.00298678178026663
133.1011353 0.03958574245943376
135.0802917 0.05594405335004263
135.0916901 0.002239771612480912
135.1165314 0.012159895907947154
135.1997681 0.0013948361661793823
137.0592346 0.013396765467452009
137.096283  0.006382586595741697
139.0626068 0.0032906654025145693
139.0752563 0.1865484315119221
143.0856628 0.005781795994651583
145.1011047 0.002469288951354194
147.0805969 0.01883930428135294
147.1165314 0.027003494458506104
149.0963745 0.005243790547414532
149.1322632 0.010986978236795305
151.0751953 0.05381657877398143
151.1123047 0.0026865986132670163
153.0548553 0.0019498667794379412
153.0621185 0.002629166064037382
153.0760345 0.003805522211304931
153.0908813 0.49286756479110255
153.1202087 0.00203203288290666
157.101059  0.007647971308713094
159.1166382 0.020079559863186984
161.0965271 0.03168651519493807
161.1323242 0.16938303942087643
165.0908203 0.06640465291261073
165.1064301 0.002895091692047267
167.106308  0.015559488988047964
173.1329956 0.0027504209610533384
175.1114655 0.016367501025845367
175.148056  0.005489251663887432
179.0882263 0.002834156331118477
179.1064453 0.0984679404682514
189.1435089 0.001824335160021862
189.1635742 0.17380684223837345
191.1790314 0.0028717407732526
193.1221924 0.024460166262993147
199.1272888 0.0020355313476069334
199.1480103 0.0515442274191793
199.1681213 0.002349224262632142
207.173645  0.006646954259352256
216.5322113 0.007695275350547554
217.1585541 0.35469548584266625
235.0991974 0.006093832268402842
235.1121674 0.006852913327584197
235.1690674 1.0
235.2117615 0.0033770162169070744
235.2250671 0.008050337060033635
235.2468262 0.0023017702493362516


PRECURSORMZ: 235.16925594399999
COMPOUNDNAME: casmi2022challengebonus42
FORMULA: C15H22O2
SMILES: CC1CCCC2C1(CC3=C(C(=O)OC3C2)C)C
INCHIKEY: AEQDXSFIHGWHDV-RNKJKDHYSA-N
PRECURSORTYPE: [M+H]+
PRECURSORINTENSITY: 160768667.1641
IONMODE: positive
CHARGE: 1
PARENTMASS: 234.161979944
NUM PEAKS: 87
54.28765488 0.002985938172683587
54.29072571 0.0024960826932634433
55.05452728 0.03285296221335403
58.78974915 0.009285462603587013
58.79343414 0.006889131942669581
67.05434418 0.006105255022265166
69.06996155 0.034614885481826826
70.7986145  0.0012510777253508332
79.05448151 0.002877196836449423
81.06993103 0.03899188445216074
81.07528687 0.0014601166422907063
83.04898071 0.0017813653658727306
83.08551788 0.06074648324776523
87.04408264 0.019163406085201215
91.05471802 0.005537081982386545
93.06993866 0.02046895359024364
95.08556366 0.053481778716084505
97.06484985 0.013536364409950288
97.10118103 0.2020713210877826
97.11164093 0.0019971993665650603
98.35868073 0.001252529912777363
105.0698547 0.026155648841353005
107.0729675 0.0017462830562951146
107.0854874 0.05582297262278187
109.0649185 0.006079920712780583
109.1011353 0.04830561819767704
111.0806046 0.006225090189446245
113.0594101 0.0014311059309516114
119.0853729 0.038213980308220256
121.0648804 0.007062984656758557
121.1011124 0.029009508089804334
123.0801697 0.01601099959032955
123.116539  0.02348048718214466
125.0592346 0.001941745136526646
125.0960693 0.010921892651133861
127.074791  0.0015201633317480428
133.064743  0.00298678178026663
133.1011353 0.03958574245943376
135.0802917 0.05594405335004263
135.0916901 0.002239771612480912
135.1165314 0.012159895907947154
135.1997681 0.0013948361661793823
137.0592346 0.013396765467452009
137.096283  0.006382586595741697
139.0626068 0.0032906654025145693
139.0752563 0.1865484315119221
143.0856628 0.005781795994651583
145.1011047 0.002469288951354194
147.0805969 0.01883930428135294
147.1165314 0.027003494458506104
149.0963745 0.005243790547414532
149.1322632 0.010986978236795305
151.0751953 0.05381657877398143
151.1123047 0.0026865986132670163
153.0548553 0.0019498667794379412
153.0621185 0.002629166064037382
153.0760345 0.003805522211304931
153.0908813 0.49286756479110255
153.1202087 0.00203203288290666
157.101059  0.007647971308713094
159.1166382 0.020079559863186984
161.0965271 0.03168651519493807
161.1323242 0.16938303942087643
165.0908203 0.06640465291261073
165.1064301 0.002895091692047267
167.106308  0.015559488988047964
173.1329956 0.0027504209610533384
175.1114655 0.016367501025845367
175.148056  0.005489251663887432
179.0882263 0.002834156331118477
179.1064453 0.0984679404682514
189.1435089 0.001824335160021862
189.1635742 0.17380684223837345
191.1790314 0.0028717407732526
193.1221924 0.024460166262993147
199.1272888 0.0020355313476069334
199.1480103 0.0515442274191793
199.1681213 0.002349224262632142
207.173645  0.006646954259352256
216.5322113 0.007695275350547554
217.1585541 0.35469548584266625
235.0991974 0.006093832268402842
235.1121674 0.006852913327584197
235.1690674 1.0
235.2117615 0.0033770162169070744
235.2250671 0.008050337060033635
235.2468262 0.0023017702493362516


