PRECURSORMZ: 291.156679248
COMPOUNDNAME: casmi2022challengebonus119
FORMULA: C15H24O4
SMILES: CC1CCC=C2C1(CC(C(C2O)O)C(C)C(=O)O)C
INCHIKEY: LQXFBNBJYFTPIH-UHFFFAOYSA-N
PRECURSORTYPE: [M+Na]+
PRECURSORINTENSITY: 7594241.914062
IONMODE: positive
CHARGE: 1
PARENTMASS: 268.167461248
NUM PEAKS: 9
72.78631592 0.008120851007549458
88.31367493 0.005620257616483999
101.6563187 0.007333339072531786
124.4999161 0.006539917983416861
154.1544952 0.005727378349349879
217.3235626 0.0263167021777847
273.1459656 0.4368447529116539
273.1800232 0.011539201605318822
291.1564331 1.0


PRECURSORMZ: 291.156679248
COMPOUNDNAME: casmi2022challengebonus119
FORMULA: C15H24O4
SMILES: CC1CCC=C2C1(CC(C(C2O)O)C(C)C(=O)O)C
INCHIKEY: LQXFBNBJYFTPIH-UHFFFAOYSA-N
PRECURSORTYPE: [M+Na]+
PRECURSORINTENSITY: 7594241.914062
IONMODE: positive
CHARGE: 1
PARENTMASS: 268.167461248
NUM PEAKS: 9
72.78631592 0.008120851007549458
88.31367493 0.005620257616483999
101.6563187 0.007333339072531786
124.4999161 0.006539917983416861
154.1544952 0.005727378349349879
217.3235626 0.0263167021777847
273.1459656 0.4368447529116539
273.1800232 0.011539201605318822
291.1564331 1.0


