PRECURSORMZ: 955.4908042120003
COMPOUNDNAME: casmi2022challengebonus138
FORMULA: C48H76O19
SMILES: CC1C(C(C(C(O1)OC2CCC3(C(C2(C)C)CCC4(C3CC=C5C4(CCC6(C5CC(CC6)(C)C)C(=O)OC7C(C(C(C(O7)CO)O)O)O)C(=O)O)C)C)O)O)OC8C(C(C(C(O8)CO)O)O)O
INCHIKEY: VYHYYPSTYRXLPO-HYKQYNPXSA-N
PRECURSORTYPE: [M-H]-
PRECURSORINTENSITY: 32497627.41406
IONMODE: negative
CHARGE: -1
PARENTMASS: 956.4980802120003
NUM PEAKS: 20
68.99653625 0.021860843481277672
71.00820923 0.03140907068924402
71.01248169 1.0
72.99160767 0.09210057397828522
73.02801514 0.16584900832739113
83.0122757  0.135355410647643
84.02002716 0.02680970161324237
85.02265167 0.032144934792979786
85.02807617 0.624597775408602
89.022995   0.01978593844664029
95.01222992 0.07349859644047507
99.00741577 0.07355778251150814
101.022934  0.15078945313167919
105.1941986 0.020021036400045166
113.0227509 0.0839354089963059
220.5907135 0.026993975122729625
275.7785034 0.018816286955407522
297.4544678 0.01972687873871118
312.7429199 0.019247072015243075
763.8065186 0.020025787652758434


