PRECURSORMZ: 661.3946239919999
COMPOUNDNAME: casmi2022challengebonus171
FORMULA: C37H56O10
SMILES: CC1CC2C(OC3(C1C4(CCC56CC57CCC(C(C7CC=C6C4(C3O)C)(C)C)OC8C(C(C(CO8)O)O)O)C)O2)C(C)(C)OC(=O)C
INCHIKEY: OZEXWSOYHYUSFA-OQDXJULVSA-N
PRECURSORTYPE: [M+H]+
PRECURSORINTENSITY: 4041363.929687
IONMODE: positive
CHARGE: 1
PARENTMASS: 660.3873479919998
NUM PEAKS: 72
55.05446625 0.16151936579801093
55.18223572 0.07901855592943029
57.03363419 0.546322701086833
61.02851868 0.11814385972062934
67.05437469 0.1719931325148803
69.03366852 0.16979987532088503
69.06987    0.14371400553149427
73.02826691 1.0
73.36209869 0.07780057232569232
79.05451965 0.08169621698665039
81.06974792 0.3529003317649333
83.04911804 0.10792125248834979
85.02825928 0.08678018162214772
89.060112   0.09466627345306056
93.06976318 0.327662694218123
95.08548737 0.7761025460107805
97.06439972 0.1800463415209961
99.08071899 0.08841826541239281
105.0700836 0.19652428570092245
107.0853882 0.68748365785984
109.0650482 0.14427158710410817
109.1012573 0.6570152269770148
115.0383606 0.08644983792605936
117.0694046 0.09299977883822584
119.0852509 0.45804454795023347
121.1012344 0.7987891114463802
123.0802841 0.175189468601487
123.1165161 0.1654885431296655
125.0960846 0.17399812101580436
131.0860443 0.1371242254326686
133.1011505 0.33741037714207317
135.1169891 0.10346721889180285
135.2240601 0.07912394463739421
139.1112518 0.1312115723065369
139.8164673 0.09125202592425871
143.0865326 0.08036951082267209
145.100708  0.38483398724166057
147.1165924 0.3229270927850481
149.096283  0.12294250506578505
157.1013184 0.3293062068283531
159.116684  0.5410708884734403
161.1322021 0.08121624665974593
169.1012726 0.13613414786791586
171.1173248 0.384418195311014
173.1322021 0.32048234202523607
183.1167755 0.3804702738976099
185.1325684 0.36959044536591473
187.1470337 0.13864071757530222
195.1170807 0.1178433397343297
197.1319122 0.29334570324767045
199.1489105 0.10350347366526896
201.1633453 0.14254705979564028
209.1323547 0.31159374898383624
211.147583  0.10876809272580582
221.1324005 0.11669235333722577
233.1317596 0.09677096432101624
235.1473389 0.1308960465049995
237.1631317 0.16274259030104424
239.1806183 0.09107562407487482
241.1934967 0.11003329314336209
251.1798553 0.08030320961860021
265.1971436 0.09647969420877012
304.2674561 0.10777908700499741
335.2363586 0.14825965394529889
341.474762  0.08331140925262608
361.2528992 0.14611823502213764
433.3083801 0.12870851045206677
451.3180237 0.1730041458367034
504.2848206 0.08199044510978507
534.6943359 0.09199569770192204
570.0217896 0.08307601422606893
638.6156616 0.08492914888797794


