PRECURSORMZ: 469.25719358599986
COMPOUNDNAME: casmi2022challengebonus232
FORMULA: C21H43O9P
SMILES: CCC(C)CCCCCCCCCCC(=O)OCC(COP(=O)(O)OCC(CO)O)O
INCHIKEY: DIGHTWUQPWHBPG-UHFFFAOYSA-N
PRECURSORTYPE: [M-H]-
PRECURSORINTENSITY: 33691189.63672
IONMODE: negative
CHARGE: -1
PARENTMASS: 470.26446958599985
NUM PEAKS: 31
58.96998596 0.0009084240624501981
60.30258179 0.011318738072992739
60.30649567 0.00571111257551914
78.95763397 0.0995923146231912
78.96213531 0.0013745441429327625
92.02458191 0.001130187165957311
96.96839142 0.009515995335893762
97.4908905  0.0007699486312084789
104.9362411 0.0009560105386687112
111.2183304 0.0008668865530779916
128.8600616 0.0008276066533592929
134.9836121 0.00150218459418736
146.6501465 0.0008715222537242623
150.9785156 0.003394764281487564
152.9944763 0.3080225856551677
153.024826  0.0036934433051379416
171.0050659 0.018516276478337958
197.5673981 0.0008890549368645868
216.0124664 0.0016709769414725612
216.0362854 0.0030946738180343985
223.2063293 0.0013680131898494345
227.032135  0.011084886167779277
241.1357727 0.003028673909036712
241.158783  0.004712761947642141
241.1713104 0.006236011355511486
241.216507  1.0
241.2771454 0.010337382193382986
245.04216   0.006706069026727531
284.3060303 0.0009755755758004354
304.2669678 0.0009222462977963257
304.3002014 0.0010024104654671048


