PRECURSORMZ: 362.19620386799994
COMPOUNDNAME: casmi2022challengebonus173
FORMULA: C20H24O5
SMILES: COC1=C(C=CC(=C1)CCC(CC(=O)CCC2=CC=C(C=C2)O)O)O
INCHIKEY: WAHUIEHYVBLIER-SFHVURJKSA-N
PRECURSORTYPE: [M+NH4]+
PRECURSORINTENSITY: 9474808.597656
IONMODE: positive
CHARGE: 1
PARENTMASS: 344.16238086799996
NUM PEAKS: 28
50.69637299 0.00454645457095852
51.99372101 0.0039870710400349875
56.09953308 0.00447188292839491
56.10210419 0.004568545603187088
57.16745758 0.003921825273018991
61.69643784 0.0037891252327818836
103.0542755 0.00584494829716594
107.049118  0.6986806680602223
121.0648575 0.015811489956288755
131.049057  0.3714103696057523
133.0646973 0.15422438694917126
137.0596466 1.0
145.0645905 0.07347790248324089
149.0596771 0.010420120796701553
151.0750122 0.004844277763637227
162.0675507 0.007989519418762777
163.0752563 0.47672311429115594
165.091156  0.026611617104523727
177.0769196 0.004698355618564794
177.0908203 0.3256383276391929
177.1083984 0.010208241055830103
179.069458  0.035225410366078756
189.0903168 0.008278403419658539
191.105957  0.010968889353113609
207.1018677 0.05077384146972309
221.1161804 0.017510547190041643
221.1380615 0.007569655247818553
348.9814758 0.004401574910619975


