PRECURSORMZ: 384.2380637759999
COMPOUNDNAME: casmi2022challengebonus31
FORMULA: C20H33NO6
SMILES: CCCCC(CC=CCC=CCCCC(=O)NC(CCC(=O)O)C(=O)O)O
INCHIKEY: CCUGMZLHJFWECW-UHFFFAOYSA-N
PRECURSORTYPE: [M+H]+
PRECURSORINTENSITY: 113287523.2227
IONMODE: positive
CHARGE: 1
PARENTMASS: 383.2307877759999
NUM PEAKS: 80
50.40454102 0.003306742757208773
50.74663925 0.003518551365175163
53.03897858 0.006746460197104638
55.01812744 0.007726825562830542
55.05444336 0.05430030685142689
56.04969025 0.0880200556593653
57.03376007 0.02704104076430609
57.07025909 0.01592455488086823
65.03884888 0.005211519943518172
67.05432892 0.21715942007424197
69.03343201 0.005870572041312872
69.06987    0.04318875850506386
71.04920959 0.0316448319120712
71.08605194 0.003233012762797587
77.03889465 0.006035213628446193
79.04983521 0.008698914550621538
79.05422211 0.5914784061887342
81.06988525 0.19555339819042852
81.07528687 0.0045587028157860554
83.04895782 0.026437566934713125
83.08557129 0.0169522621590913
84.02933502 0.00396277701436074
84.04440308 0.7963566463270987
85.06472778 0.030926223446028682
91.05421448 0.13241106441992231
93.06286621 0.00666614380455348
93.06464386 0.007631764542021474
93.06987762 0.47926370394500506
95.0493927  0.015681396256799963
95.08548737 0.1847185975361359
97.06486511 0.060365067302610625
98.06001282 0.14040647533283232
98.06681824 0.006381718971503856
98.66083527 0.004146371868809822
99.080513   0.016175660933032972
102.0548935 0.02203529265096938
105.0447769 0.005681798145782568
105.069725  0.11161362755495778
107.0854874 0.28158871087663606
109.0651398 0.013887400329953354
109.1011658 0.08418761460173771
111.0805664 0.01622035205808212
116.0629578 0.015313763013869648
116.0705338 1.0
117.0699005 0.05119203351211128
119.0612335 0.003830824817421436
119.085434  0.08745128823072566
121.0653152 0.004584494401993053
121.093277  0.005496288529148956
121.1010818 0.623757315230367
123.079834  0.025908010326814383
123.1169968 0.006225885564544239
130.040863  0.008201808296034223
130.0497437 0.6960914022301782
131.0853729 0.15397622634780486
133.1009521 0.09203903320537214
135.0807648 0.03793204359499401
135.1166077 0.06169131848919848
137.0964203 0.02246699983992862
139.1126251 0.004236240142294402
144.0654449 0.0945652100685949
145.0494385 0.16488208016719844
145.1010437 0.16555683961977818
145.1140289 0.004922990364734668
147.116684  0.021491323654149543
149.0961151 0.05136089881517005
159.1170654 0.05665479821497607
161.1324463 0.027702609328364783
162.0635376 0.004754855878566948
162.0758209 0.4304848113596362
163.1115723 0.016171574279540205
163.1484985 0.032005187688075976
177.1266479 0.013612329185559498
177.1637726 0.02218283542550109
185.1326141 0.006654386040828517
187.147995  0.1167408064046516
205.1586151 0.04455197926749345
264.4690247 0.0036925474633388473
304.2345276 0.0031684895261143366
333.5037842 0.004396211738221473


PRECURSORMZ: 384.2380637759999
COMPOUNDNAME: casmi2022challengebonus31
FORMULA: C20H33NO6
SMILES: CCCCC(CC=CCC=CCCCC(=O)NC(CCC(=O)O)C(=O)O)O
INCHIKEY: CCUGMZLHJFWECW-UHFFFAOYSA-N
PRECURSORTYPE: [M+H]+
PRECURSORINTENSITY: 113287523.2227
IONMODE: positive
CHARGE: 1
PARENTMASS: 383.2307877759999
NUM PEAKS: 80
50.40454102 0.003306742757208773
50.74663925 0.003518551365175163
53.03897858 0.006746460197104638
55.01812744 0.007726825562830542
55.05444336 0.05430030685142689
56.04969025 0.0880200556593653
57.03376007 0.02704104076430609
57.07025909 0.01592455488086823
65.03884888 0.005211519943518172
67.05432892 0.21715942007424197
69.03343201 0.005870572041312872
69.06987    0.04318875850506386
71.04920959 0.0316448319120712
71.08605194 0.003233012762797587
77.03889465 0.006035213628446193
79.04983521 0.008698914550621538
79.05422211 0.5914784061887342
81.06988525 0.19555339819042852
81.07528687 0.0045587028157860554
83.04895782 0.026437566934713125
83.08557129 0.0169522621590913
84.02933502 0.00396277701436074
84.04440308 0.7963566463270987
85.06472778 0.030926223446028682
91.05421448 0.13241106441992231
93.06286621 0.00666614380455348
93.06464386 0.007631764542021474
93.06987762 0.47926370394500506
95.0493927  0.015681396256799963
95.08548737 0.1847185975361359
97.06486511 0.060365067302610625
98.06001282 0.14040647533283232
98.06681824 0.006381718971503856
98.66083527 0.004146371868809822
99.080513   0.016175660933032972
102.0548935 0.02203529265096938
105.0447769 0.005681798145782568
105.069725  0.11161362755495778
107.0854874 0.28158871087663606
109.0651398 0.013887400329953354
109.1011658 0.08418761460173771
111.0805664 0.01622035205808212
116.0629578 0.015313763013869648
116.0705338 1.0
117.0699005 0.05119203351211128
119.0612335 0.003830824817421436
119.085434  0.08745128823072566
121.0653152 0.004584494401993053
121.093277  0.005496288529148956
121.1010818 0.623757315230367
123.079834  0.025908010326814383
123.1169968 0.006225885564544239
130.040863  0.008201808296034223
130.0497437 0.6960914022301782
131.0853729 0.15397622634780486
133.1009521 0.09203903320537214
135.0807648 0.03793204359499401
135.1166077 0.06169131848919848
137.0964203 0.02246699983992862
139.1126251 0.004236240142294402
144.0654449 0.0945652100685949
145.0494385 0.16488208016719844
145.1010437 0.16555683961977818
145.1140289 0.004922990364734668
147.116684  0.021491323654149543
149.0961151 0.05136089881517005
159.1170654 0.05665479821497607
161.1324463 0.027702609328364783
162.0635376 0.004754855878566948
162.0758209 0.4304848113596362
163.1115723 0.016171574279540205
163.1484985 0.032005187688075976
177.1266479 0.013612329185559498
177.1637726 0.02218283542550109
185.1326141 0.006654386040828517
187.147995  0.1167408064046516
205.1586151 0.04455197926749345
264.4690247 0.0036925474633388473
304.2345276 0.0031684895261143366
333.5037842 0.004396211738221473


