PRECURSORMZ: 417.2482941119998
COMPOUNDNAME: casmi2022challengebonus83
FORMULA: C21H36O8
SMILES: CC(CCC=C(C)CCC1CC(=O)OC1(C)C)OC2C(C(C(C(O2)CO)O)O)O
INCHIKEY: ZADCROHMCBYQOL-KSFZEVTFSA-N
PRECURSORTYPE: [M+H]+
PRECURSORINTENSITY: 544506.003418
IONMODE: positive
CHARGE: 1
PARENTMASS: 416.24101811199984
NUM PEAKS: 23
65.51467133 0.06991944680752529
88.70475769 0.08162273121129263
89.2858429  0.06743289822427376
94.37685394 0.09015710536921132
95.0853653  0.11470764152733483
103.985199  0.0738926186930806
107.0850983 0.10920394430996985
121.101326  0.1730349424079374
121.3760986 0.07121241660678113
123.1167984 0.14897514747688373
128.4346619 0.06830981527701355
139.0756836 0.08822368108489775
153.0906525 0.10830804176954117
163.0574951 0.06352535008964147
177.1639252 1.0
181.1228333 0.11140568000544435
201.1636658 0.12994338839410263
215.7868805 0.1916322823485058
215.8115387 0.2739970297036362
219.1740112 0.14108930657233715
226.2488556 0.07645463535420809
263.0163574 0.06836162792638747
370.881958  0.09364384674229594


PRECURSORMZ: 417.2482941119998
COMPOUNDNAME: casmi2022challengebonus83
FORMULA: C21H36O8
SMILES: CC(CCC=C(C)CCC1CC(=O)OC1(C)C)OC2C(C(C(C(O2)CO)O)O)O
INCHIKEY: ZADCROHMCBYQOL-KSFZEVTFSA-N
PRECURSORTYPE: [M+H]+
PRECURSORINTENSITY: 544506.003418
IONMODE: positive
CHARGE: 1
PARENTMASS: 416.24101811199984
NUM PEAKS: 23
65.51467133 0.06991944680752529
88.70475769 0.08162273121129263
89.2858429  0.06743289822427376
94.37685394 0.09015710536921132
95.0853653  0.11470764152733483
103.985199  0.0738926186930806
107.0850983 0.10920394430996985
121.101326  0.1730349424079374
121.3760986 0.07121241660678113
123.1167984 0.14897514747688373
128.4346619 0.06830981527701355
139.0756836 0.08822368108489775
153.0906525 0.10830804176954117
163.0574951 0.06352535008964147
177.1639252 1.0
181.1228333 0.11140568000544435
201.1636658 0.12994338839410263
215.7868805 0.1916322823485058
215.8115387 0.2739970297036362
219.1740112 0.14108930657233715
226.2488556 0.07645463535420809
263.0163574 0.06836162792638747
370.881958  0.09364384674229594


