PRECURSORMZ: 1335.6226657999998
COMPOUNDNAME: casmi2022challengebonus199
FORMULA: C63H100O30
SMILES: CC1C(C(C(C(O1)OC2C(C(COC2OC(=O)C34CCC(CC3C5=CCC6C(C5(CC4)C)(CCC7C6(CC(C(C7(C)CO)OC8C(C(C(C(O8)CO)O)O)OC9C(C(C(CO9)O)O)O)O)C)C)(C)C)O)O)O)OC1C(C(C(CO1)O)O)O)OC(=O)CC(C)(CC(=O)O)O
INCHIKEY: TUOKVBKUAPFXAA-VRZLRGRSSA-N
PRECURSORTYPE: [M-H]-
PRECURSORINTENSITY: 12092244.19238
IONMODE: negative
CHARGE: -1
PARENTMASS: 1336.6299417999999
NUM PEAKS: 72
95.0123291  0.001746807053715921
97.0280838  0.0037057508205984727
99.00720978 0.00937206010367537
99.04360962 0.02076813258695072
101.0230026 0.07446295477644962
109.0279999 0.003918315691254973
113.0230331 0.1294292163926288
115.0383072 0.019302826646714316
118.7938309 0.0018960259349168778
119.0332336 0.008158366863927527
121.8316116 0.009649974287810293
121.8423691 0.006702446189166674
122.2768707 0.002114210372627915
125.0231171 0.060305779917186594
127.0387039 0.032596834229813396
131.0227966 0.004250048472402297
131.0336456 0.10179026113044606
143.0336761 0.057726090179219834
145.0494232 0.03581458877608556
149.0339966 0.002004995347189462
149.0443268 0.03082464596456627
149.9326324 0.0017270023270022023
157.8404846 0.008556043449009903
157.8563385 0.005111324571603737
159.0289917 0.0031089310362147475
161.044632  0.017407913521539
162.344162  0.004689115983621516
162.3575134 0.002881781273802714
187.0603027 0.0025569938378294916
191.0552368 0.08841321408994454
195.3523254 0.004815391797005623
195.3737488 0.0035599492046745444
205.0709381 0.05729720428864145
210.7846985 0.0020034217351701596
219.2743073 0.003793156462860006
277.0932922 0.020221913778277156
293.0871582 0.012803289355270005
319.1038513 0.00300915190898405
337.1138306 0.02823391829097893
409.134491  0.002623016255743493
439.3210754 0.07494330128881871
455.3157959 0.011258147144163249
467.3182678 0.003212159407290181
469.3311157 0.01914883740709018
487.1293335 0.0033583572021362706
487.3423462 1.0
487.5084839 0.009743406779717868
488.3470459 0.00838749596643666
529.3511353 0.004484418506841367
541.3547974 0.02806360043936562
559.3638916 0.009243791403717564
583.3685913 0.0068528453904188
601.3778687 0.002853316573294934
631.0750122 0.0035895253824835675
631.3846436 0.7296956561336939
631.6204834 0.005488969693044408
632.3898315 0.011166434388563531
649.3950806 0.5016962569328114
650.3947754 0.0027114176750717145
673.3933716 0.002719867123295031
691.4072266 0.01135629913968841
703.4084473 0.004338384824228168
721.411499  0.00935209481790295
763.4282837 0.03911535613095374
781.4373779 0.7635591685367733
781.7780151 0.003835752803340734
782.4376831 0.01128773264905452
823.4451294 0.00895492722502326
853.4598999 0.018354910836362627
969.5059814 0.0035743628778488073
1059.535767 0.009421971541519324
1191.583862 0.007368182229768596


