PRECURSORMZ: 971.4857188320003
COMPOUNDNAME: casmi2022challengebonus246
FORMULA: C48H76O20
SMILES: CC1C(C(C(C(O1)OC2C(C(OC(C2O)OC3C(CC4(C(C3(C)CO)CCC5(C4CC=C6C5(CCC7(C6CC(CC7)(C)C)C(=O)OC8C(C(C(C(O8)CO)O)O)O)C)C)C)O)C(=O)O)O)O)O)O
INCHIKEY: HELVNAROXHFAIE-WRJJPCEFSA-N
PRECURSORTYPE: [M-H]-
PRECURSORINTENSITY: 18727748.61426
IONMODE: negative
CHARGE: -1
PARENTMASS: 972.4929948320004
NUM PEAKS: 63
138.9901581 0.0008330542183752445
139.0024414 0.034881703964851976
143.0332947 0.001822353534935617
145.0490417 0.000842056913143204
145.8367004 0.0009516526132186179
145.8503265 0.0007198261831698702
150.3402557 0.00047553722119922284
157.0130768 0.014749198707296794
163.0606079 0.0040922395064997685
175.023056  0.0018751729733567327
202.3501434 0.0025650479764152243
202.373291  0.001259196466971726
205.071167  0.0007238215762104515
220.7332458 0.0006613485853609126
221.0643616 0.00048360985053023166
242.8611908 0.010796300939780562
242.8928528 0.00579841701864206
303.0715637 0.008156226597722324
321.0822144 0.00724057460372384
439.3210449 0.006715320806714823
455.3163147 0.004697883819991535
467.3161621 0.001929382304577154
469.330658  0.002966859073486708
485.3256226 0.0026308288770066353
487.1754456 0.0006385713267105831
487.3424988 0.14838611824331027
488.3431702 0.0008285013505086986
501.3574829 0.0016678721117483262
515.3369751 0.005867134743527573
529.3538818 0.006138552296932049
543.3337402 0.0061571149731485305
545.3497314 0.000708373647123178
555.3640137 0.0008933399562120326
569.3474121 0.009203285361092429
583.1427612 0.001349007172869352
583.3635254 0.15107081565749927
584.3691406 0.0007682512975831461
601.3741455 0.05918000730955423
603.3508911 0.0035303319748653315
619.3812256 0.005337638393134953
627.3560791 0.00371558294794733
645.3619995 0.0017099597364424691
663.3768921 0.0006965700944715893
745.4174194 0.00047688042258127575
747.4327393 0.029927308724500768
765.4334717 0.03263456953873322
789.4091187 0.0025646799640090187
791.4223633 0.005203856476209173
809.0756226 0.001796503736441249
809.4325562 0.22445616807376548
810.4234619 0.0031938502294205895
825.4237061 0.008355791171263267
851.4454956 0.005428050537167465
953.4714355 0.0009581033664697223
963.1855469 0.0007584937634625812
971.0027466 0.007591726171588542
971.4848633 1.0
971.8517456 0.00539930242147126
971.946167  0.004823464102555705
972.1090698 0.0029845936590740937
972.2593994 0.0009301585062095569
972.4858398 0.0189513454826576
979.8967285 0.0006331288446685048


