PRECURSORMZ: 268.154334152
COMPOUNDNAME: casmi2022challengebonus239
FORMULA: C14H21NO4
SMILES: CC1CCC2C1C(=O)OC(C2C)NC(=O)C3C(O3)C
INCHIKEY: RYZXGYYJJBGYNG-UHFFFAOYSA-N
PRECURSORTYPE: [M+H]+
PRECURSORINTENSITY: 133578248.3848
IONMODE: positive
CHARGE: 1
PARENTMASS: 267.147058152
NUM PEAKS: 79
51.03276062 0.0012605714994954737
55.53489304 0.010332225720480648
55.5383606  0.006796564040402137
56.04975891 0.008141835695737076
57.03387833 0.0018496997733605397
58.0653801  0.024709290260405047
67.05429077 0.009776846635480622
68.04956055 0.005024261287672426
69.07016754 0.0016304007026941823
70.06519318 0.008593312605269092
72.08084869 0.001319854698114296
74.06011963 0.011859823368693347
79.05439758 0.008414730453726342
81.06991577 0.08685644195327627
81.07548523 0.002029642401889648
84.04458618 0.0050924497924200954
86.04413605 0.004394122198539641
86.06005096 0.5555072549941924
86.07250977 0.007476426769654008
86.07859802 0.0012701879745019937
87.50479126 0.00099091362349091
88.03919983 0.004433466107547113
93.0699234  0.019454267147566
95.085289   0.008247372467286738
96.08100128 0.001586216820919062
99.02091217 0.0010121726861625564
100.075325  0.0014371736464992527
102.0548935 0.0073102659845651445
107.0854416 0.004920125007138135
109.0647812 0.2754150567842305
109.1011429 0.10379161532606117
109.109848  0.0022584702156540916
110.0599899 0.004924177922352399
111.0804214 0.00831279494478763
112.0755997 0.012764376829055063
114.0547791 0.007714809197655984
114.0912399 0.007765380951217545
121.10112   0.11858366306119722
123.1065445 0.002494451112018382
123.1167831 0.08427577808613212
123.1247787 0.0013869606394046824
124.0758667 0.0010730774878018841
130.0498505 0.008718579512640533
131.0857544 0.00179792518428898
132.0654602 0.013782786299549694
134.0964661 0.004609617061878945
139.1118164 0.005214183047091673
140.0704346 0.004843471005632209
142.0862274 0.0014548442096554092
147.9007263 0.001047376637944382
148.111618  0.008743184001099715
149.095993  0.028130962550253942
149.1326752 0.007348168008734134
150.1279602 0.004116961117181388
151.1116638 0.0047263894968159505
158.0810699 0.016872948338153906
164.1064911 0.0038204642911493602
165.1146545 0.005403090197913251
166.1229858 0.006005605349156346
167.1065826 0.019802946636775787
176.1431732 0.041384105684427915
178.1229401 0.009232311812273825
178.158905  0.017773074499167856
194.1539917 0.03222452833854245
202.5128479 0.001356100739393026
204.1382294 0.1393999286480873
206.1179504 0.013694124409889657
206.1532135 0.02832408221247446
221.0727692 0.001181880117012427
222.0821838 0.006137602892166184
222.0968933 0.004094765749227462
222.1487122 1.0
222.1895752 0.006994865749345205
222.2003937 0.011709446048357993
222.2248993 0.0015572639113417162
224.1266479 0.001891397611109116
232.1330261 0.0481657017183919
250.1435394 0.1511026284231404
268.1542358 0.03450860638293488


PRECURSORMZ: 268.154334152
COMPOUNDNAME: casmi2022challengebonus239
FORMULA: C14H21NO4
SMILES: CC1CCC2C1C(=O)OC(C2C)NC(=O)C3C(O3)C
INCHIKEY: RYZXGYYJJBGYNG-UHFFFAOYSA-N
PRECURSORTYPE: [M+H]+
PRECURSORINTENSITY: 133578248.3848
IONMODE: positive
CHARGE: 1
PARENTMASS: 267.147058152
NUM PEAKS: 79
51.03276062 0.0012605714994954737
55.53489304 0.010332225720480648
55.5383606  0.006796564040402137
56.04975891 0.008141835695737076
57.03387833 0.0018496997733605397
58.0653801  0.024709290260405047
67.05429077 0.009776846635480622
68.04956055 0.005024261287672426
69.07016754 0.0016304007026941823
70.06519318 0.008593312605269092
72.08084869 0.001319854698114296
74.06011963 0.011859823368693347
79.05439758 0.008414730453726342
81.06991577 0.08685644195327627
81.07548523 0.002029642401889648
84.04458618 0.0050924497924200954
86.04413605 0.004394122198539641
86.06005096 0.5555072549941924
86.07250977 0.007476426769654008
86.07859802 0.0012701879745019937
87.50479126 0.00099091362349091
88.03919983 0.004433466107547113
93.0699234  0.019454267147566
95.085289   0.008247372467286738
96.08100128 0.001586216820919062
99.02091217 0.0010121726861625564
100.075325  0.0014371736464992527
102.0548935 0.0073102659845651445
107.0854416 0.004920125007138135
109.0647812 0.2754150567842305
109.1011429 0.10379161532606117
109.109848  0.0022584702156540916
110.0599899 0.004924177922352399
111.0804214 0.00831279494478763
112.0755997 0.012764376829055063
114.0547791 0.007714809197655984
114.0912399 0.007765380951217545
121.10112   0.11858366306119722
123.1065445 0.002494451112018382
123.1167831 0.08427577808613212
123.1247787 0.0013869606394046824
124.0758667 0.0010730774878018841
130.0498505 0.008718579512640533
131.0857544 0.00179792518428898
132.0654602 0.013782786299549694
134.0964661 0.004609617061878945
139.1118164 0.005214183047091673
140.0704346 0.004843471005632209
142.0862274 0.0014548442096554092
147.9007263 0.001047376637944382
148.111618  0.008743184001099715
149.095993  0.028130962550253942
149.1326752 0.007348168008734134
150.1279602 0.004116961117181388
151.1116638 0.0047263894968159505
158.0810699 0.016872948338153906
164.1064911 0.0038204642911493602
165.1146545 0.005403090197913251
166.1229858 0.006005605349156346
167.1065826 0.019802946636775787
176.1431732 0.041384105684427915
178.1229401 0.009232311812273825
178.158905  0.017773074499167856
194.1539917 0.03222452833854245
202.5128479 0.001356100739393026
204.1382294 0.1393999286480873
206.1179504 0.013694124409889657
206.1532135 0.02832408221247446
221.0727692 0.001181880117012427
222.0821838 0.006137602892166184
222.0968933 0.004094765749227462
222.1487122 1.0
222.1895752 0.006994865749345205
222.2003937 0.011709446048357993
222.2248993 0.0015572639113417162
224.1266479 0.001891397611109116
232.1330261 0.0481657017183919
250.1435394 0.1511026284231404
268.1542358 0.03450860638293488


