PRECURSORMZ: 668.436828056
COMPOUNDNAME: casmi2022challengebonus95
FORMULA: C36H58O10
SMILES: CC1(CCC2(CCC3(C(=CCC4C3(CCC5C4(CC(C(C5(C)CO)O)O)C)C)C2C1)C)C(=O)OC6C(C(C(C(O6)CO)O)O)O)C
INCHIKEY: CJHYKSSBQRABTM-WTTBAFRVSA-N
PRECURSORTYPE: [M+NH4]+
PRECURSORINTENSITY: 3603615.154297
IONMODE: positive
CHARGE: 1
PARENTMASS: 650.403005056
NUM PEAKS: 69
66.96903229 0.03004668819519262
80.67403412 0.03329045160287554
81.06985474 0.1969969843525312
83.04924774 0.5252614622270749
85.02842712 0.14792377580111282
93.0699234  0.18173499931244516
95.04936218 0.04760342988108482
95.08545685 0.46231269218465776
98.72184753 0.03345104459396326
105.0696411 0.07832906635868345
107.08535   0.3842603194033788
109.1010666 0.2894099015842058
111.0807877 0.05144739255853446
119.0771103 0.04232229166628339
119.085434  0.28026646407945127
119.7051544 0.03278636283203561
121.1006393 0.24966160092030595
123.1169357 0.09021851379233116
125.0958252 0.36662291479252657
127.0389709 0.036528321856481694
133.1011658 0.2710951900524625
135.1167297 0.17722448941422364
143.3306885 0.03871528163050243
145.1012115 0.1894658120507091
147.1167603 0.393631706288205
149.1322021 0.2951971848142541
159.1170807 0.3437757681644573
161.1324005 0.39170575327858026
163.1483765 0.26300508267277517
173.1322021 0.23681675389423013
175.1479645 0.5012120637139958
177.1638947 0.4284633357873404
185.1329346 0.052868205962549146
187.1483459 0.6574019904881949
189.1637573 0.8102798798780174
191.1421204 0.060680396314551056
191.1791534 0.22980829769660893
193.1586151 0.0423708965598707
199.1477356 0.2506031004216712
201.1635132 1.0
203.1440582 0.0509366565763917
203.1796112 0.6907495626831481
205.1582794 0.4398398244356115
205.1930389 0.0439698855102492
207.1731873 0.06495788738772544
213.1637573 0.41025839560654886
215.1801758 0.3565797689098656
217.1586151 0.3032844576655677
219.1743011 0.1962573299207873
227.1797638 0.06782206928905342
229.1950531 0.047524196333680796
231.1747894 0.06550465458631052
235.1685333 0.07318304066302962
241.1956329 0.13755284215010558
247.1686554 0.19104956238273654
249.1836243 0.05304370445433778
253.1950378 0.037081012492565714
255.2105713 0.04140073682717108
261.1849365 0.22275383492307574
283.2416992 0.0709763906075074
285.1818237 0.039985386552628836
304.2544556 0.07610637820244835
327.2335205 0.052206398097445796
349.2902832 0.05558425952961233
389.3218079 0.2634924761926266
395.2933655 0.14184184698062646
407.3312988 0.7165495853012309
435.3259277 0.24493913128924913
453.3355713 0.15800363730557196


