PRECURSORMZ: 751.3910272960002
COMPOUNDNAME: casmi2022challengebonus189
FORMULA: C38H58O12
SMILES: CC(=O)OC(C)(C)C=CC(=O)C(C)(C1CCC2(C1(CC(=O)C3(C2CC=C4C3CC(C(C4(C)C)O)OC5C(C(C(C(O5)CO)O)O)O)C)C)C)O
INCHIKEY: VDBSGEAWBANKNK-UVKFBWJXSA-N
PRECURSORTYPE: [M+FA-H]-
PRECURSORINTENSITY: 56025363.60938
IONMODE: negative
CHARGE: -1
PARENTMASS: 706.3928262960002
NUM PEAKS: 21
56.01982498 0.029136032386611648
59.01246262 1.0
62.45969391 0.028045313913466687
69.44393921 0.03182884264145316
71.01250458 0.4800735043477406
73.02787018 0.16658542222493536
78.97610474 0.029101121431919265
80.46131897 0.02651214622114906
83.01199341 0.04231474013933091
85.02805328 0.24261212885241282
89.0226059  0.051112771237025116
99.00776672 0.052684577197387096
101.0229492 0.325165477989256
110.0879288 0.030804194758457037
113.0226517 0.20834410930724578
159.4123383 0.03243368205323811
161.0439301 0.040024012412078626
207.1087189 0.03888748751438048
221.2434998 0.03684887276569923
221.2654266 0.043517502067963065
705.3815918 0.04562219060757782


PRECURSORMZ: 751.3910272960002
COMPOUNDNAME: casmi2022challengebonus189
FORMULA: C38H58O12
SMILES: CC(=O)OC(C)(C)C=CC(=O)C(C)(C1CCC2(C1(CC(=O)C3(C2CC=C4C3CC(C(C4(C)C)O)OC5C(C(C(C(O5)CO)O)O)O)C)C)C)O
INCHIKEY: VDBSGEAWBANKNK-UVKFBWJXSA-N
PRECURSORTYPE: [M+FA-H]-
PRECURSORINTENSITY: 56025363.60938
IONMODE: negative
CHARGE: -1
PARENTMASS: 706.3928262960002
NUM PEAKS: 21
56.01982498 0.029136032386611648
59.01246262 1.0
62.45969391 0.028045313913466687
69.44393921 0.03182884264145316
71.01250458 0.4800735043477406
73.02787018 0.16658542222493536
78.97610474 0.029101121431919265
80.46131897 0.02651214622114906
83.01199341 0.04231474013933091
85.02805328 0.24261212885241282
89.0226059  0.051112771237025116
99.00776672 0.052684577197387096
101.0229492 0.325165477989256
110.0879288 0.030804194758457037
113.0226517 0.20834410930724578
159.4123383 0.03243368205323811
161.0439301 0.040024012412078626
207.1087189 0.03888748751438048
221.2434998 0.03684887276569923
221.2654266 0.043517502067963065
705.3815918 0.04562219060757782


