PRECURSORMZ: 151.04006811600001
COMPOUNDNAME: casmi2022challengebonus165
FORMULA: C8H8O3
SMILES: C1C(C=CC2=CC(=O)OC21)O
INCHIKEY: RAXNUTINVDSFEU-NKWVEPMBSA-N
PRECURSORTYPE: [M-H]-
PRECURSORINTENSITY: 2577183.994141
IONMODE: negative
CHARGE: -1
PARENTMASS: 152.047344116
NUM PEAKS: 22
63.00187683 0.0099109677258016
63.96110535 0.022563602215148717
67.4133606  0.0029699888682210717
78.98455048 0.1576589884110753
78.98882294 0.003247407539971123
78.9982605  0.0024408861333438943
92.98747253 0.0024269331837598173
94.97933197 0.018270966296891813
106.9555817 0.004353957534774874
106.9916992 0.04999024052058563
107.0316849 0.012052119700162732
107.0356445 0.006136211300785754
107.0488358 1.0
107.0672913 0.0068582564804604606
107.0703659 0.011656779142158447
108.0530548 0.010395286782258676
115.1332321 0.0022886165864872275
122.9506836 0.021545184609140476
127.0106354 0.0022761791987016273
150.9814301 0.008807714589418071
151.0389099 0.05486003151522182
152.0343628 0.003047838941218752


