PRECURSORMZ: 371.1489144239999
COMPOUNDNAME: casmi2022challengebonus78
FORMULA: C21H22O6
SMILES: COC1=C(C=C(C=C1)C2C3COC(C3CO2)C4=CC5=C(C=C4)OCO5)OC
INCHIKEY: AWOGQCSIVCQXBT-UGCQDJOBSA-N
PRECURSORTYPE: [M+H]+
PRECURSORINTENSITY: 4887982.911133
IONMODE: positive
CHARGE: 1
PARENTMASS: 370.1416384239999
NUM PEAKS: 49
62.45259857 0.020050100546735148
73.5774765  0.020416300404322206
81.09723663 0.01940719542416171
99.54573822 0.025557910031185363
115.1879425 0.022369276300599768
135.0439606 1.0
135.0555573 0.04253957704313732
145.4500427 0.023578868182048327
147.0436096 0.022224512068571654
149.059845  0.04861085967583524
151.0751343 0.29893755890280477
161.0599518 0.03839183229437348
165.0558014 0.02745014199160042
172.0876617 0.020793607303636913
173.0600891 0.12277932364351174
176.6928711 0.022138891662116064
177.0909576 0.027007949169392573
188.0830841 0.03937249235714172
189.0914307 0.10614941532639464
201.090683  0.47947209803997604
203.1068268 0.3224010941701461
213.0914612 0.0450798737565206
217.2776489 0.0771073644457975
228.5014191 0.020423410517833817
231.1021576 0.2865112585991757
252.0792999 0.08905885377935964
253.0858612 0.03251288872101985
261.0914001 0.09565061189645804
262.0993347 0.029350901178545736
265.1231689 0.028698540453037914
268.0732117 0.09352418359828839
274.0986023 0.028812538826664826
277.1220398 0.17152086122479557
278.0970459 0.025521379758723543
282.088623  0.36321987645309656
283.0967712 0.29007393875329474
289.0866394 0.05117381234413542
290.0934143 0.03220726319206778
292.1100159 0.11199861514806068
293.1166382 0.09685152033419266
295.0975342 0.09927113704185428
303.1023865 0.10183522340056993
304.1087341 0.3212333394820417
305.1167603 0.30349128086735494
308.1044617 0.1548445608676063
315.0768127 0.02734801835557305
320.1050415 0.12822836645530392
323.1277161 0.270568732668373
335.1278076 0.26894280637189


PRECURSORMZ: 371.1489144239999
COMPOUNDNAME: casmi2022challengebonus78
FORMULA: C21H22O6
SMILES: COC1=C(C=C(C=C1)C2C3COC(C3CO2)C4=CC5=C(C=C4)OCO5)OC
INCHIKEY: AWOGQCSIVCQXBT-UGCQDJOBSA-N
PRECURSORTYPE: [M+H]+
PRECURSORINTENSITY: 4887982.911133
IONMODE: positive
CHARGE: 1
PARENTMASS: 370.1416384239999
NUM PEAKS: 49
62.45259857 0.020050100546735148
73.5774765  0.020416300404322206
81.09723663 0.01940719542416171
99.54573822 0.025557910031185363
115.1879425 0.022369276300599768
135.0439606 1.0
135.0555573 0.04253957704313732
145.4500427 0.023578868182048327
147.0436096 0.022224512068571654
149.059845  0.04861085967583524
151.0751343 0.29893755890280477
161.0599518 0.03839183229437348
165.0558014 0.02745014199160042
172.0876617 0.020793607303636913
173.0600891 0.12277932364351174
176.6928711 0.022138891662116064
177.0909576 0.027007949169392573
188.0830841 0.03937249235714172
189.0914307 0.10614941532639464
201.090683  0.47947209803997604
203.1068268 0.3224010941701461
213.0914612 0.0450798737565206
217.2776489 0.0771073644457975
228.5014191 0.020423410517833817
231.1021576 0.2865112585991757
252.0792999 0.08905885377935964
253.0858612 0.03251288872101985
261.0914001 0.09565061189645804
262.0993347 0.029350901178545736
265.1231689 0.028698540453037914
268.0732117 0.09352418359828839
274.0986023 0.028812538826664826
277.1220398 0.17152086122479557
278.0970459 0.025521379758723543
282.088623  0.36321987645309656
283.0967712 0.29007393875329474
289.0866394 0.05117381234413542
290.0934143 0.03220726319206778
292.1100159 0.11199861514806068
293.1166382 0.09685152033419266
295.0975342 0.09927113704185428
303.1023865 0.10183522340056993
304.1087341 0.3212333394820417
305.1167603 0.30349128086735494
308.1044617 0.1548445608676063
315.0768127 0.02734801835557305
320.1050415 0.12822836645530392
323.1277161 0.270568732668373
335.1278076 0.26894280637189


