PRECURSORMZ: 365.23334488399996
COMPOUNDNAME: casmi2022challengebonus128
FORMULA: C20H32O3
SMILES: CC1CCCC2C1(CC(C(=C)C2(C)CCC(=CC(=O)O)C)O)C
INCHIKEY: RRGXTNAHUODMQF-NGMIUWCPSA-N
PRECURSORTYPE: [M+FA-H]-
PRECURSORINTENSITY: 2746145.15625
IONMODE: negative
CHARGE: -1
PARENTMASS: 320.23514388399997
NUM PEAKS: 7
65.83681488 0.8404421357952435
73.9356308  0.8825162217197219
114.3444901 0.9276666629261361
153.0174255 1.0
231.5235291 0.8633703100208242
245.7025146 0.9537547311850448
250.0740051 0.9023989241052655


PRECURSORMZ: 365.23334488399996
COMPOUNDNAME: casmi2022challengebonus128
FORMULA: C20H32O3
SMILES: CC1CCCC2C1(CC(C(=C)C2(C)CCC(=CC(=O)O)C)O)C
INCHIKEY: RRGXTNAHUODMQF-NGMIUWCPSA-N
PRECURSORTYPE: [M+FA-H]-
PRECURSORINTENSITY: 2746145.15625
IONMODE: negative
CHARGE: -1
PARENTMASS: 320.23514388399997
NUM PEAKS: 7
65.83681488 0.8404421357952435
73.9356308  0.8825162217197219
114.3444901 0.9276666629261361
153.0174255 1.0
231.5235291 0.8633703100208242
245.7025146 0.9537547311850448
250.0740051 0.9023989241052655


