PRECURSORMZ: 295.155097868
COMPOUNDNAME: casmi2022challengebonus39
FORMULA: C16H24O5
SMILES: CC(=CCCC(=CCCC(C)(C=CC(=O)O)O)C(=O)O)C
INCHIKEY: WKFXEXJTYHWXLU-INIZCTEOSA-N
PRECURSORTYPE: [M-H]-
PRECURSORINTENSITY: 35717138.59082
IONMODE: negative
CHARGE: -1
PARENTMASS: 296.162373868
NUM PEAKS: 28
53.13537979 0.007457490890053928
57.03317642 0.0839727830010277
62.47804642 0.007038862154422883
67.05445862 0.008564098337207515
68.08551025 0.00857885265788408
69.0331955  0.4021388153324479
71.01235962 0.043240022654765606
71.04884338 1.0
72.2254715  0.007625922224292493
83.04875946 0.030599507960448205
85.06435394 0.03513273415838984
87.94113159 0.008080556527738517
96.69759369 0.007406412940540862
97.02159882 0.011790672608645913
97.02805328 0.2407684951381277
102.9869766 0.03304289301383971
107.5517807 0.008689363489838129
107.6114044 0.0069828293442997565
113.0227051 0.03209452622580209
115.0386047 0.1695665067461506
116.4549866 0.00746393480634556
120.6794739 0.008490395647045646
130.982193  0.030329821900077204
220.7712402 0.009522868901252118
237.6572571 0.007852201966984296
263.5576477 0.008148308826293534
286.5703125 0.008511608196759855
297.630188  0.007654085997627262


PRECURSORMZ: 295.155097868
COMPOUNDNAME: casmi2022challengebonus39
FORMULA: C16H24O5
SMILES: CC(=CCCC(=CCCC(C)(C=CC(=O)O)O)C(=O)O)C
INCHIKEY: WKFXEXJTYHWXLU-INIZCTEOSA-N
PRECURSORTYPE: [M-H]-
PRECURSORINTENSITY: 35717138.59082
IONMODE: negative
CHARGE: -1
PARENTMASS: 296.162373868
NUM PEAKS: 28
53.13537979 0.007457490890053928
57.03317642 0.0839727830010277
62.47804642 0.007038862154422883
67.05445862 0.008564098337207515
68.08551025 0.00857885265788408
69.0331955  0.4021388153324479
71.01235962 0.043240022654765606
71.04884338 1.0
72.2254715  0.007625922224292493
83.04875946 0.030599507960448205
85.06435394 0.03513273415838984
87.94113159 0.008080556527738517
96.69759369 0.007406412940540862
97.02159882 0.011790672608645913
97.02805328 0.2407684951381277
102.9869766 0.03304289301383971
107.5517807 0.008689363489838129
107.6114044 0.0069828293442997565
113.0227051 0.03209452622580209
115.0386047 0.1695665067461506
116.4549866 0.00746393480634556
120.6794739 0.008490395647045646
130.982193  0.030329821900077204
220.7712402 0.009522868901252118
237.6572571 0.007852201966984296
263.5576477 0.008148308826293534
286.5703125 0.008511608196759855
297.630188  0.007654085997627262


