PRECURSORMZ: 369.232524896
COMPOUNDNAME: casmi2022challengebonus144
FORMULA: C26H28N2
SMILES: CC(=CCC1=CC2=C(C=C1)C(=CN2)C(C=C(C)C)C3=CC4=C(C=C3)C=CN4)C
INCHIKEY: FNELRTTWUIVSEN-HSZRJFAPSA-N
PRECURSORTYPE: [M+H]+
PRECURSORINTENSITY: 7361165.782227
IONMODE: positive
CHARGE: 1
PARENTMASS: 368.225248896
NUM PEAKS: 57
50.24914932 0.013528513302614372
53.74133301 0.011340360972092017
54.32601929 0.010718477354397514
54.83020401 0.010968269145270791
65.31199646 0.011899298782071641
69.06995392 0.6588412034793097
79.42205811 0.012085789566870727
81.02898407 0.01310596933366917
81.4283371  0.010728222599891613
84.33579254 0.01016361675575511
99.83908081 0.011295362580523239
105.0697174 0.048659086828385816
130.0653992 0.10561092105501468
142.063736  0.01256814311670019
154.0648804 0.06650789990965804
155.072403  0.08722440986110025
156.0798798 0.020876773122262857
157.1011658 0.1020375277292296
167.0717926 0.016141509657035064
168.0639496 0.019846087636104796
168.0806122 0.7787180832030054
169.0871582 0.6745204277115577
170.0954895 0.04654788094388237
181.0889282 0.019940975675345512
182.0965271 0.24662106438353887
183.1036377 0.27794133310039154
184.092514  0.012429282685087552
184.1119232 1.0
196.111557  0.04950283782294122
213.1457977 0.013122095339208585
221.1870117 0.015777470934013636
222.1234589 0.016010893321126745
226.1575012 0.026803817922590924
226.683609  0.012144594111084052
236.142807  0.048208294690857335
237.1467896 0.05583834210380583
240.687149  0.011683812165256527
252.1737213 0.21857534721955663
253.1773071 0.046119844793083654
256.1001587 0.01325929041457665
257.1016846 0.054376578571386516
269.1064758 0.060674476080322885
270.1107178 0.19607851321317402
271.1195068 0.018722044375115345
283.1221619 0.02059489003301011
284.1282654 0.1517681024363561
285.1340942 0.29118307205764954
286.1412048 0.049528053412740254
298.1422119 0.021985788581166284
300.1578369 0.02473767681098897
313.1690063 0.04557407377870087
314.1736145 0.11659336552630772
338.1752319 0.017328856253268996
339.1776123 0.02412372634486065
353.1963501 0.020368557638077697
354.2038574 0.28153896842309406
368.2196655 0.2289383257511721


PRECURSORMZ: 369.232524896
COMPOUNDNAME: casmi2022challengebonus144
FORMULA: C26H28N2
SMILES: CC(=CCC1=CC2=C(C=C1)C(=CN2)C(C=C(C)C)C3=CC4=C(C=C3)C=CN4)C
INCHIKEY: FNELRTTWUIVSEN-HSZRJFAPSA-N
PRECURSORTYPE: [M+H]+
PRECURSORINTENSITY: 7361165.782227
IONMODE: positive
CHARGE: 1
PARENTMASS: 368.225248896
NUM PEAKS: 57
50.24914932 0.013528513302614372
53.74133301 0.011340360972092017
54.32601929 0.010718477354397514
54.83020401 0.010968269145270791
65.31199646 0.011899298782071641
69.06995392 0.6588412034793097
79.42205811 0.012085789566870727
81.02898407 0.01310596933366917
81.4283371  0.010728222599891613
84.33579254 0.01016361675575511
99.83908081 0.011295362580523239
105.0697174 0.048659086828385816
130.0653992 0.10561092105501468
142.063736  0.01256814311670019
154.0648804 0.06650789990965804
155.072403  0.08722440986110025
156.0798798 0.020876773122262857
157.1011658 0.1020375277292296
167.0717926 0.016141509657035064
168.0639496 0.019846087636104796
168.0806122 0.7787180832030054
169.0871582 0.6745204277115577
170.0954895 0.04654788094388237
181.0889282 0.019940975675345512
182.0965271 0.24662106438353887
183.1036377 0.27794133310039154
184.092514  0.012429282685087552
184.1119232 1.0
196.111557  0.04950283782294122
213.1457977 0.013122095339208585
221.1870117 0.015777470934013636
222.1234589 0.016010893321126745
226.1575012 0.026803817922590924
226.683609  0.012144594111084052
236.142807  0.048208294690857335
237.1467896 0.05583834210380583
240.687149  0.011683812165256527
252.1737213 0.21857534721955663
253.1773071 0.046119844793083654
256.1001587 0.01325929041457665
257.1016846 0.054376578571386516
269.1064758 0.060674476080322885
270.1107178 0.19607851321317402
271.1195068 0.018722044375115345
283.1221619 0.02059489003301011
284.1282654 0.1517681024363561
285.1340942 0.29118307205764954
286.1412048 0.049528053412740254
298.1422119 0.021985788581166284
300.1578369 0.02473767681098897
313.1690063 0.04557407377870087
314.1736145 0.11659336552630772
338.1752319 0.017328856253268996
339.1776123 0.02412372634486065
353.1963501 0.020368557638077697
354.2038574 0.28153896842309406
368.2196655 0.2289383257511721


