PRECURSORMZ: 243.101570308
COMPOUNDNAME: casmi2022challengebonus249
FORMULA: C15H14O3
SMILES: C1C(COC2=C1C=CC(=C2)O)C3=CC=C(C=C3)O
INCHIKEY: ADFCQWZHKCXPAJ-LBPRGKRZSA-N
PRECURSORTYPE: [M+H]+
PRECURSORINTENSITY: 533671.46875
IONMODE: positive
CHARGE: 1
PARENTMASS: 242.094294308
NUM PEAKS: 18
55.01815033 0.05438478147107735
64.74401093 0.026863093569372123
67.0541153  0.03913157283541148
79.05410004 0.16326478306133496
95.04904938 0.0691191691163172
97.11368561 0.02662875719743454
103.0540619 0.06735264337512172
105.0699081 1.0
107.0492401 0.5742079546129942
115.0540848 0.027637746841479467
123.0439835 0.5154962808414713
133.0646973 0.8211642030272632
139.0085297 0.033823467813626794
181.419342  0.03375293539995113
205.1962738 0.030309422470078205
213.0794067 0.030178995754767183
215.0540466 0.02857274402257932
220.5138245 0.027164147812931812


