PRECURSORMZ: 287.05501403999995
COMPOUNDNAME: casmi2022challengebonus45
FORMULA: C15H10O6
SMILES: COC(=O)C1=C2C(=CC(=C1)O)OC3=CC=CC(=C3C2=O)O
INCHIKEY: YBQTVIMCHXORHO-UHFFFAOYSA-N
PRECURSORTYPE: [M+H]+
PRECURSORINTENSITY: 36234811.49023
IONMODE: positive
CHARGE: 1
PARENTMASS: 286.04773803999996
NUM PEAKS: 14
50.44224548 0.0004500114134552125
63.75424576 0.01042953137739574
63.75857162 0.007090393072742008
82.52949524 0.0005272235692902512
176.34729   0.0005642228750938802
218.6905212 0.0011123746975702793
232.6474152 0.000666432209261751
254.9649963 0.01051944246324058
254.9782715 0.0060806950205977515
255.028656  1.0
255.0778809 0.005672889300061454
255.0919495 0.004127746113036406
255.1110687 0.006432702853615852
287.0566711 0.000807156338834352


