PRECURSORMZ: 430.24354798399986
COMPOUNDNAME: casmi2022challengebonus241
FORMULA: C21H32O8
SMILES: CC1CCC(C2(C1=CC(CC2)C(=C)C(=O)O)C)OC3C(C(C(C(O3)CO)O)O)O
INCHIKEY: AKZZXWNFVQXXFN-DVMTYXMPSA-N
PRECURSORTYPE: [M+NH4]+
PRECURSORINTENSITY: 696165.2597656
IONMODE: positive
CHARGE: 1
PARENTMASS: 412.2097249839999
NUM PEAKS: 17
50.41921234 0.05352715369026951
52.92160034 0.058091474406938085
74.13554382 0.057343371435379584
81.06989288 0.073094115242678
86.48456573 0.06984744228889346
95.08553314 0.07612209022296142
98.07530975 0.0646918909882698
133.086853  0.06479162823756039
151.0750732 0.11067131157921963
173.6156006 0.070154917521456
187.1482239 0.7163082406386695
208.2675018 0.05944113230000853
215.1425629 0.2920636663289723
215.6844788 0.5091240112054726
233.153595  1.0
251.1638336 0.2829238641729883
331.6116943 0.06628104273373792


