PRECURSORMZ: 506.38400463599993
COMPOUNDNAME: casmi2022challengebonus96
FORMULA: C30H48O5
SMILES: CC1CC2C(C(OC3(C1C4(CCC56CC57CCC(C(C7CCC6C4(C3O)C)(C)C)O)C)O2)(C)C)O
INCHIKEY: KZGFHCNCJXEGAD-JAVVREIBSA-N
PRECURSORTYPE: [M+NH4]+
PRECURSORINTENSITY: 26161310.48438
IONMODE: positive
CHARGE: 1
PARENTMASS: 488.35018163599995
NUM PEAKS: 123
50.3690033  0.02236346985668686
67.05422211 0.023980904054960245
69.03369904 0.02934105443396344
69.06997681 0.028854761283954297
81.06977844 0.09475715752372262
81.92605591 0.022701103834728897
83.04901886 0.07761884585657482
83.08544922 0.025708064058033095
83.84016418 0.0190739539003793
93.069664   0.03639567056533845
95.08553314 0.365567643197035
97.06501007 0.04167145173531277
105.0697327 0.031908459590080734
107.0856247 0.14858257982809836
109.1011505 0.3188834076750445
111.0804443 0.039574468394684946
113.096138  0.02701516186782415
116.3109055 0.02077430665490251
119.0856247 0.10404338979578534
121.1009369 0.17831220259435498
123.0802078 0.218594871818749
123.116745  0.08578136785644445
125.0963516 0.21033989216571838
125.9953232 0.021794476403103096
127.1119995 0.02358814963636194
127.9794083 0.01952211539804617
131.0854645 0.12170573486548651
133.1009521 0.12214345079013289
135.1166992 0.12233609515118217
137.0958099 0.029040779493793772
139.0754242 0.0816592208554108
139.1116333 0.10061178261800777
143.0850677 0.03880265709536566
145.1012878 0.08502951358171845
147.1169434 0.10943888692299812
149.0957184 0.0962924108597875
149.1329193 0.17974423114529692
155.0851898 0.1398750896290985
157.1007385 0.12927529635803217
159.1172638 0.17246795468725265
161.1324158 0.13789671934219225
163.1109467 0.02862773485151864
163.1478882 0.023486731983387486
167.1429138 0.026012983415124737
169.1009674 0.10242545652639519
171.1169281 0.09381480067419706
173.1321259 0.11905709024369802
175.1476746 0.04382715086556101
177.1278076 0.1572138387328075
179.1431274 0.03573209804259391
183.1166382 0.08786982479257266
185.1324463 0.12592773101027127
187.1483459 0.21357529309879222
187.6490479 0.020445923680240476
189.1640167 0.03038594930019492
191.1422424 0.032237826156797676
193.1213379 0.0326114048953787
195.1183167 0.02598903091156315
195.1378632 0.11303969521450455
197.1324768 0.040222853441292075
199.1478577 0.08143082961624777
201.1632996 0.08892867618985538
203.1433105 0.026565389665415738
209.1328125 0.023448543585350184
211.1472931 0.08750799677800851
213.1626892 0.044635451102089004
217.1584015 0.023499314977604664
218.6828918 0.028373432654790916
223.1469116 0.024630050075894028
225.1629181 0.03212755617532848
227.1781616 0.039487283726149645
229.1589508 0.032794306457020236
235.1690216 0.03178312144393672
237.163269  0.07144485598815499
239.1794434 0.37440865747250596
240.1883698 0.022746701183569706
241.195282  0.21846906515686257
243.2105255 0.041571401799100446
245.1885681 0.021118630804938997
247.1687164 0.1215468236378705
251.1798706 0.04316024344194392
253.1944122 0.04854647501559809
255.1734314 0.043233809143565165
255.2089081 0.026166161872479908
257.1903076 0.20216082952312664
259.1744385 0.018378710004469667
259.204834  0.17312199102312198
263.1780396 0.025289344846210437
267.2086182 0.03203775829476566
269.1883545 0.027352077067056533
271.2064514 0.035617713270693845
279.211853  0.03584157067429018
283.2081909 0.03289915213200853
291.2108154 0.036915257433395104
293.2249146 0.027960789597437603
297.219635  0.021607041005894865
303.2070923 0.022678321165504205
307.2444458 0.03090846657416633
309.2202759 0.03817348410422148
311.2370605 0.048660341801149115
319.2407227 0.03196573782208305
321.2583008 0.029027681423263525
327.23172   0.12228292297950404
333.9568481 0.02654619216013141
335.2362976 0.02566857778408962
337.2512207 0.04957072899885461
339.2701416 0.03199696832484409
345.2553711 0.03342134639202138
347.2725525 0.03051624323707741
351.2694397 0.07389634569361282
353.2488403 0.034841953052976916
363.2666321 0.14245877061469264
365.2842102 0.10873503077653719
381.276947  0.23315557283470068
383.2947388 0.03574121227429793
389.3181763 0.02691776879417464
399.2947693 0.10670109044856453
407.3317261 0.11065275592017655
417.3152161 0.24779382048106383
435.3254395 0.7148263290714891
453.3357544 1.0
471.346405  0.1272457210835576
506.2922363 0.08701668963654818


