PRECURSORMZ: 343.22436488399995
COMPOUNDNAME: casmi2022challengebonus36
FORMULA: C20H32O3
SMILES: CC(=CCCC(=CCCC(=CCCC(=CCO)C)C)C(=O)O)C
INCHIKEY: USXGDFAHMRCBBX-UHFFFAOYSA-N
PRECURSORTYPE: [M+Na]+
PRECURSORINTENSITY: 6064272.710937
IONMODE: positive
CHARGE: 1
PARENTMASS: 320.23514688399996
NUM PEAKS: 7
86.14007568 0.023958971843954548
137.1373901 0.02855255890021657
207.0643921 0.12567716165108064
247.0952454 0.0976225531921622
265.3471375 0.03142195316127708
325.2102051 0.03414709233572973
343.223938  1.0


PRECURSORMZ: 343.22436488399995
COMPOUNDNAME: casmi2022challengebonus36
FORMULA: C20H32O3
SMILES: CC(=CCCC(=CCCC(=CCCC(=CCO)C)C)C(=O)O)C
INCHIKEY: USXGDFAHMRCBBX-UHFFFAOYSA-N
PRECURSORTYPE: [M+Na]+
PRECURSORINTENSITY: 6064272.710937
IONMODE: positive
CHARGE: 1
PARENTMASS: 320.23514688399996
NUM PEAKS: 7
86.14007568 0.023958971843954548
137.1373901 0.02855255890021657
207.0643921 0.12567716165108064
247.0952454 0.0976225531921622
265.3471375 0.03142195316127708
325.2102051 0.03414709233572973
343.223938  1.0


