PRECURSORMZ: 502.35270450799993
COMPOUNDNAME: casmi2022challengebonus8
FORMULA: C30H44O5
SMILES: CC1CC2C(C(OC3(C1C4(CCC56CC57C=CC(=O)C(C7CCC6C4(C3O)C)(C)C)C)O2)(C)C)O
INCHIKEY: CKIDYWZCPUNPOX-UHFFFAOYSA-N
PRECURSORTYPE: [M+NH4]+
PRECURSORINTENSITY: 9436681.75
IONMODE: positive
CHARGE: 1
PARENTMASS: 484.31888150799995
NUM PEAKS: 53
55.05462265 0.035704986455110346
56.72199631 0.03260939775589388
56.7499733  0.03303533416768839
57.41536713 0.037844526863962204
66.58239746 0.038204054014875935
75.33890533 0.03890613933027524
81.06957245 0.05391347008093741
83.04894257 0.08854334685624242
93.06946564 0.03990912896120714
95.08544159 0.16231760084761462
97.88144684 0.038199973289255854
107.0854034 0.08759110080703757
109.1012039 0.0890609269341147
111.0802765 0.055917009818930954
119.0853043 0.08352956462318781
121.1008606 0.16073211084150846
123.080452  0.04956600461924735
123.1168976 0.041179330001143856
125.0962753 0.07450386099766768
128.9960022 0.03657495334234303
133.1004944 0.05826846204929705
135.0801697 0.2289810029337855
135.1165314 0.05719594041840575
137.0958862 0.34590196824201835
145.1003113 0.059255511229740654
147.1170654 0.0698276464875795
149.0956421 0.150284977974924
159.1171875 0.0642605639032572
161.0956268 0.23287910215778374
161.1324005 0.052290837674126685
163.1121521 0.059129134981819514
169.100235  0.040160399919725184
171.1165619 0.056026439359184534
173.094986  0.040129907727924456
175.1117096 0.0781856186406774
185.096756  0.043726337732407534
187.110733  0.06217250227510741
217.6224365 0.15850414604693464
223.8061829 0.04282412977096682
253.1569214 0.045873876214949726
255.1737823 0.14876284875314413
257.1898193 0.045103057221709895
295.2060547 0.05040387524419003
301.2133484 0.04178645954195665
351.2303772 0.06310338299654464
365.2527466 0.04376579712381882
377.2467651 0.06345949407141488
379.2635498 0.06836849188500815
395.2577515 0.06543337707098867
421.3084717 0.06732880914163336
431.2928772 0.2605633982720477
449.3040771 1.0
467.3103027 0.13318482908153656


PRECURSORMZ: 502.35270450799993
COMPOUNDNAME: casmi2022challengebonus8
FORMULA: C30H44O5
SMILES: CC1CC2C(C(OC3(C1C4(CCC56CC57C=CC(=O)C(C7CCC6C4(C3O)C)(C)C)C)O2)(C)C)O
INCHIKEY: CKIDYWZCPUNPOX-UHFFFAOYSA-N
PRECURSORTYPE: [M+NH4]+
PRECURSORINTENSITY: 9436681.75
IONMODE: positive
CHARGE: 1
PARENTMASS: 484.31888150799995
NUM PEAKS: 53
55.05462265 0.035704986455110346
56.72199631 0.03260939775589388
56.7499733  0.03303533416768839
57.41536713 0.037844526863962204
66.58239746 0.038204054014875935
75.33890533 0.03890613933027524
81.06957245 0.05391347008093741
83.04894257 0.08854334685624242
93.06946564 0.03990912896120714
95.08544159 0.16231760084761462
97.88144684 0.038199973289255854
107.0854034 0.08759110080703757
109.1012039 0.0890609269341147
111.0802765 0.055917009818930954
119.0853043 0.08352956462318781
121.1008606 0.16073211084150846
123.080452  0.04956600461924735
123.1168976 0.041179330001143856
125.0962753 0.07450386099766768
128.9960022 0.03657495334234303
133.1004944 0.05826846204929705
135.0801697 0.2289810029337855
135.1165314 0.05719594041840575
137.0958862 0.34590196824201835
145.1003113 0.059255511229740654
147.1170654 0.0698276464875795
149.0956421 0.150284977974924
159.1171875 0.0642605639032572
161.0956268 0.23287910215778374
161.1324005 0.052290837674126685
163.1121521 0.059129134981819514
169.100235  0.040160399919725184
171.1165619 0.056026439359184534
173.094986  0.040129907727924456
175.1117096 0.0781856186406774
185.096756  0.043726337732407534
187.110733  0.06217250227510741
217.6224365 0.15850414604693464
223.8061829 0.04282412977096682
253.1569214 0.045873876214949726
255.1737823 0.14876284875314413
257.1898193 0.045103057221709895
295.2060547 0.05040387524419003
301.2133484 0.04178645954195665
351.2303772 0.06310338299654464
365.2527466 0.04376579712381882
377.2467651 0.06345949407141488
379.2635498 0.06836849188500815
395.2577515 0.06543337707098867
421.3084717 0.06732880914163336
431.2928772 0.2605633982720477
449.3040771 1.0
467.3103027 0.13318482908153656


