PRECURSORMZ: 659.306202912
COMPOUNDNAME: casmi2022challengebonus82
FORMULA: C35H46O12
SMILES: CC(CC(=O)CC(C)C(=O)O)C1CC(=O)C2(C1(C(C(=O)C3=C2C(=O)CC4C3(CCC(C4(C)C)OC(=O)CC(=O)O)C)OC(=O)C)C)C
INCHIKEY: WRDRGEUZCODXHY-UHFFFAOYSA-N
PRECURSORTYPE: [M+H]+
PRECURSORINTENSITY: 16087093.68945
IONMODE: positive
CHARGE: 1
PARENTMASS: 658.298926912
NUM PEAKS: 243
53.03889465 0.040538581819459574
55.05453491 0.147799102222347
59.63617706 0.020291618885108987
63.87366486 0.020221079834352423
65.03890228 0.02457498861335666
67.05431366 0.14352871406125964
69.02935791 0.03787850344165516
69.03353882 0.9131597120382993
69.06983948 0.14355264752515434
71.70414734 0.024448435140748397
79.05440521 0.27528836174428006
81.06993103 0.2106548964051092
87.04405975 0.13226210956440124
91.05426788 0.47303988132075225
93.0697937  0.40612885684761374
95.04922485 0.0946991782562342
95.08529663 0.18013130392584617
97.06481934 0.025639192198341453
103.0544052 0.022078726088177715
105.0445557 0.036778021898825265
105.0697937 0.5106563203757808
107.0495224 0.02484416484990888
107.0854797 0.33329367899418905
109.0646973 0.052264602537515734
109.101265  0.038620962646176295
115.0544891 0.08943163926581711
116.0614853 0.026950725851122126
117.0696335 0.09612409013140176
119.049118  0.14308999791731483
119.077713  0.023592131914082076
119.0854492 0.7122149638419015
121.064476  0.0446270103469397
121.1011047 0.33097368246089176
123.0802231 0.038257811708460876
128.0619202 0.15866381916924732
129.0695343 0.17667092713910873
130.0778656 0.09070037536481565
131.0855255 0.23509392111018082
133.064682  0.04034955995720712
133.0762177 0.02740549688022401
133.1015472 0.15250567104003232
135.080307  0.04720989081832931
139.0749054 0.09383441059958693
141.069458  0.19151472011754006
142.0774078 0.20725948187751456
143.0853577 0.29140064111462277
144.0934296 0.04983770575992039
145.0647583 0.08361747865606263
145.1013641 0.20542546655784388
147.0804901 0.10371471818134974
147.1164703 0.032647930704260364
149.0960541 0.04361282181096902
153.0697632 0.12413833127233213
154.0774231 0.20399198140601635
155.085495  0.23086567582211512
156.0935822 0.2851061529158053
157.0642853 0.02816896349379707
157.1009521 0.29100543803130624
158.0724182 0.09644436188032561
159.0805664 0.1889466171835151
159.1166534 0.1857197997589904
161.0602112 0.02567428084615001
161.0953827 0.044392064790256106
165.0703735 0.13543250599271398
166.07724   0.045308726701816876
167.0853729 0.10937256215452705
168.0931396 0.10292455531905804
169.0646973 0.025191478595825923
169.1010284 0.3172485516220614
170.0731354 0.026027501125090495
170.109024  0.1008832126868206
171.0804749 0.0980789188620487
171.116806  0.21292815289388234
172.0876617 0.04813291065649453
173.0965118 0.21133166663883607
175.1109467 0.03267752099409134
178.07901   0.03230399440676646
179.0853119 0.12786545925564033
180.0930328 0.0832661279789031
181.1004486 0.15300208872935409
181.3452148 0.0275609299378773
182.0718842 0.038476183757576186
182.1090851 0.04151591294908764
183.079895  0.19359205258406115
183.1165771 0.1033797073115362
184.0882263 0.1231744747212936
185.0957947 0.28505495656018676
185.1326447 0.10264526114341567
186.1034546 0.033382280831193524
187.0752716 0.10543289502355033
187.1114197 0.10960453363577514
189.0536041 0.0304015433383425
189.0896149 0.03154597652989002
191.085083  0.03551871704442729
192.0930634 0.1258045306239235
193.1009369 0.19566769472568435
194.1085968 0.04647899817414178
195.0805054 0.10582003704987289
195.116333  0.14064431548346826
196.0898132 0.06882027205625565
197.0961609 0.48259487819262675
197.1312714 0.08632909273501432
198.103241  0.12634814935546887
199.0746155 0.04584047794397485
199.1111603 0.3916152918878645
200.1201935 0.04663029185661939
201.0906525 0.21137126121901928
201.1266022 0.028802259083370613
203.0681915 0.039934117794337046
203.0874329 0.057679980929037394
204.0925446 0.028890155978059377
205.1009064 0.09871317486349603
206.1087036 0.193247648886122
207.1163788 0.16714047839472815
208.088028  0.09029188658391177
208.122879  0.06403541046261939
209.0961151 0.1924213233154094
209.131546  0.07714457794482513
210.1034698 0.1438957322574535
211.0751343 0.11592933243332923
211.1118164 0.18729574600542934
213.0908966 0.10647264972360114
213.1272736 0.1440247475858319
215.1077423 0.0657092867064552
217.1016846 0.16722557088674547
218.1088867 0.15184625224749185
219.0802307 0.037423700398824804
219.1168671 0.16510782428857554
220.0882416 0.02494010039198155
220.1244812 0.15780685005701517
221.0960388 0.12209477969278498
221.1328278 0.2107657663518189
222.1036682 0.10016775066007187
223.1104279 0.18617025853877867
223.1480408 0.08328246778624909
224.1195526 0.0873677461627832
225.0904694 0.18777011263812898
225.1277161 0.09233304993926611
227.1063232 0.3308446287160384
229.1011658 0.11532230090713079
230.1087952 0.12672621869095707
231.117218  0.1965552177409945
232.1246338 0.14201119927322176
233.0955658 0.13976087741999463
233.1324768 0.21297172998196884
234.1035156 0.13253458481573974
234.1409149 0.030458713455815984
235.1118469 0.19424824439270572
235.1474304 0.05329746148031279
236.0803833 0.025737869716313613
236.1190491 0.13496436282895644
237.0909882 0.03316033284853449
237.1271667 0.17964271039192284
238.0982666 0.040833069710945226
239.1075134 0.09833059799494685
239.1425171 0.029110445649549673
241.1233215 0.034212806603167466
242.1093597 0.04513977424635328
243.1180115 0.3014114110453205
244.1250763 0.1857745176248128
245.0960236 0.0921008735701516
245.1328278 0.23124720264034895
246.1037903 0.13021711096429758
246.1408081 0.14457186221659782
247.1120605 0.20061827218676923
247.1454163 0.15193493027717128
248.1197052 0.126210029322527
249.0932922 0.032632525697804865
249.1267853 0.2624559529503699
249.1635437 0.028805137117619384
250.096817  0.023172604799375503
250.1351624 0.11407075618067299
251.1085205 0.04356054979405184
251.1421967 0.1364672793565128
253.123642  0.02800107389414112
256.1246033 0.17371921009171087
257.0969849 0.09305289784690512
257.1318359 0.5066800615524129
258.1053772 0.039173260299687436
258.139801  0.23720370269254415
259.1115417 0.1923174835836158
259.1479797 0.21795446203258803
260.1200562 0.21009466895089318
260.1492615 0.030295984469295167
261.1271362 0.345802313737209
261.1625061 0.09952462045291077
262.135437  0.12115089970872117
262.1672363 0.025637751580530777
263.1087036 0.08011251314739828
263.1434631 0.16136168015016641
264.1520996 0.025451681384103756
265.12323   0.08977834795225334
265.1586304 0.02981760011358983
270.104187  0.03811199877640966
270.138855  0.046075913310714395
271.1113586 0.10745504222380373
271.1479187 1.0
272.1185303 0.10505687456672619
272.1554871 0.2347464312887539
273.1270142 0.1752609272589681
273.1637573 0.16060624578123078
274.1351624 0.13661976715108645
275.1096802 0.056772647818143986
275.1424561 0.3313705758691062
275.1761169 0.05649500555092452
276.1171875 0.03137887126659732
276.151123  0.0796868970214119
277.1222229 0.14672645021424613
277.158844  0.0964406290795095
279.1364441 0.05239234051810233
281.1311951 0.08377467887156369
284.1190796 0.04762276227875088
285.1265259 0.2507324229004398
285.163147  0.11692091287379103
286.135437  0.0782474317049836
286.1713257 0.33423749495079463
287.1427002 0.14474763039499206
287.1794739 0.23150367102712438
288.1503906 0.039471522609837384
289.1217957 0.0982088241720968
289.1584473 0.49906473811181695
290.1325378 0.032983853965353666
290.1672974 0.03845584863683525
291.138031  0.03818030967161905
296.1541748 0.028035485451578492
299.1423645 0.599306485305391
300.1497192 0.1086808223010608
301.1939697 0.04760801995648797
303.1376343 0.1498325758799652
303.1730957 0.06182641193094828
304.1453552 0.03620134899195682
304.1813354 0.09038402849908267
305.1888733 0.07760251513173726
311.1786194 0.031182444628798323
313.1580811 0.08338311254787589
314.1658325 0.2546646308325301
315.1737976 0.08792208309084
317.1528015 0.38651893670983073
319.2052917 0.03231103422580098
329.1897583 0.12050244241703348
332.1761475 0.11138595680123736
347.2020264 0.03182141305117302
433.2284546 0.022413672930532993


PRECURSORMZ: 659.306202912
COMPOUNDNAME: casmi2022challengebonus82
FORMULA: C35H46O12
SMILES: CC(CC(=O)CC(C)C(=O)O)C1CC(=O)C2(C1(C(C(=O)C3=C2C(=O)CC4C3(CCC(C4(C)C)OC(=O)CC(=O)O)C)OC(=O)C)C)C
INCHIKEY: WRDRGEUZCODXHY-UHFFFAOYSA-N
PRECURSORTYPE: [M+H]+
PRECURSORINTENSITY: 16087093.68945
IONMODE: positive
CHARGE: 1
PARENTMASS: 658.298926912
NUM PEAKS: 243
53.03889465 0.040538581819459574
55.05453491 0.147799102222347
59.63617706 0.020291618885108987
63.87366486 0.020221079834352423
65.03890228 0.02457498861335666
67.05431366 0.14352871406125964
69.02935791 0.03787850344165516
69.03353882 0.9131597120382993
69.06983948 0.14355264752515434
71.70414734 0.024448435140748397
79.05440521 0.27528836174428006
81.06993103 0.2106548964051092
87.04405975 0.13226210956440124
91.05426788 0.47303988132075225
93.0697937  0.40612885684761374
95.04922485 0.0946991782562342
95.08529663 0.18013130392584617
97.06481934 0.025639192198341453
103.0544052 0.022078726088177715
105.0445557 0.036778021898825265
105.0697937 0.5106563203757808
107.0495224 0.02484416484990888
107.0854797 0.33329367899418905
109.0646973 0.052264602537515734
109.101265  0.038620962646176295
115.0544891 0.08943163926581711
116.0614853 0.026950725851122126
117.0696335 0.09612409013140176
119.049118  0.14308999791731483
119.077713  0.023592131914082076
119.0854492 0.7122149638419015
121.064476  0.0446270103469397
121.1011047 0.33097368246089176
123.0802231 0.038257811708460876
128.0619202 0.15866381916924732
129.0695343 0.17667092713910873
130.0778656 0.09070037536481565
131.0855255 0.23509392111018082
133.064682  0.04034955995720712
133.0762177 0.02740549688022401
133.1015472 0.15250567104003232
135.080307  0.04720989081832931
139.0749054 0.09383441059958693
141.069458  0.19151472011754006
142.0774078 0.20725948187751456
143.0853577 0.29140064111462277
144.0934296 0.04983770575992039
145.0647583 0.08361747865606263
145.1013641 0.20542546655784388
147.0804901 0.10371471818134974
147.1164703 0.032647930704260364
149.0960541 0.04361282181096902
153.0697632 0.12413833127233213
154.0774231 0.20399198140601635
155.085495  0.23086567582211512
156.0935822 0.2851061529158053
157.0642853 0.02816896349379707
157.1009521 0.29100543803130624
158.0724182 0.09644436188032561
159.0805664 0.1889466171835151
159.1166534 0.1857197997589904
161.0602112 0.02567428084615001
161.0953827 0.044392064790256106
165.0703735 0.13543250599271398
166.07724   0.045308726701816876
167.0853729 0.10937256215452705
168.0931396 0.10292455531905804
169.0646973 0.025191478595825923
169.1010284 0.3172485516220614
170.0731354 0.026027501125090495
170.109024  0.1008832126868206
171.0804749 0.0980789188620487
171.116806  0.21292815289388234
172.0876617 0.04813291065649453
173.0965118 0.21133166663883607
175.1109467 0.03267752099409134
178.07901   0.03230399440676646
179.0853119 0.12786545925564033
180.0930328 0.0832661279789031
181.1004486 0.15300208872935409
181.3452148 0.0275609299378773
182.0718842 0.038476183757576186
182.1090851 0.04151591294908764
183.079895  0.19359205258406115
183.1165771 0.1033797073115362
184.0882263 0.1231744747212936
185.0957947 0.28505495656018676
185.1326447 0.10264526114341567
186.1034546 0.033382280831193524
187.0752716 0.10543289502355033
187.1114197 0.10960453363577514
189.0536041 0.0304015433383425
189.0896149 0.03154597652989002
191.085083  0.03551871704442729
192.0930634 0.1258045306239235
193.1009369 0.19566769472568435
194.1085968 0.04647899817414178
195.0805054 0.10582003704987289
195.116333  0.14064431548346826
196.0898132 0.06882027205625565
197.0961609 0.48259487819262675
197.1312714 0.08632909273501432
198.103241  0.12634814935546887
199.0746155 0.04584047794397485
199.1111603 0.3916152918878645
200.1201935 0.04663029185661939
201.0906525 0.21137126121901928
201.1266022 0.028802259083370613
203.0681915 0.039934117794337046
203.0874329 0.057679980929037394
204.0925446 0.028890155978059377
205.1009064 0.09871317486349603
206.1087036 0.193247648886122
207.1163788 0.16714047839472815
208.088028  0.09029188658391177
208.122879  0.06403541046261939
209.0961151 0.1924213233154094
209.131546  0.07714457794482513
210.1034698 0.1438957322574535
211.0751343 0.11592933243332923
211.1118164 0.18729574600542934
213.0908966 0.10647264972360114
213.1272736 0.1440247475858319
215.1077423 0.0657092867064552
217.1016846 0.16722557088674547
218.1088867 0.15184625224749185
219.0802307 0.037423700398824804
219.1168671 0.16510782428857554
220.0882416 0.02494010039198155
220.1244812 0.15780685005701517
221.0960388 0.12209477969278498
221.1328278 0.2107657663518189
222.1036682 0.10016775066007187
223.1104279 0.18617025853877867
223.1480408 0.08328246778624909
224.1195526 0.0873677461627832
225.0904694 0.18777011263812898
225.1277161 0.09233304993926611
227.1063232 0.3308446287160384
229.1011658 0.11532230090713079
230.1087952 0.12672621869095707
231.117218  0.1965552177409945
232.1246338 0.14201119927322176
233.0955658 0.13976087741999463
233.1324768 0.21297172998196884
234.1035156 0.13253458481573974
234.1409149 0.030458713455815984
235.1118469 0.19424824439270572
235.1474304 0.05329746148031279
236.0803833 0.025737869716313613
236.1190491 0.13496436282895644
237.0909882 0.03316033284853449
237.1271667 0.17964271039192284
238.0982666 0.040833069710945226
239.1075134 0.09833059799494685
239.1425171 0.029110445649549673
241.1233215 0.034212806603167466
242.1093597 0.04513977424635328
243.1180115 0.3014114110453205
244.1250763 0.1857745176248128
245.0960236 0.0921008735701516
245.1328278 0.23124720264034895
246.1037903 0.13021711096429758
246.1408081 0.14457186221659782
247.1120605 0.20061827218676923
247.1454163 0.15193493027717128
248.1197052 0.126210029322527
249.0932922 0.032632525697804865
249.1267853 0.2624559529503699
249.1635437 0.028805137117619384
250.096817  0.023172604799375503
250.1351624 0.11407075618067299
251.1085205 0.04356054979405184
251.1421967 0.1364672793565128
253.123642  0.02800107389414112
256.1246033 0.17371921009171087
257.0969849 0.09305289784690512
257.1318359 0.5066800615524129
258.1053772 0.039173260299687436
258.139801  0.23720370269254415
259.1115417 0.1923174835836158
259.1479797 0.21795446203258803
260.1200562 0.21009466895089318
260.1492615 0.030295984469295167
261.1271362 0.345802313737209
261.1625061 0.09952462045291077
262.135437  0.12115089970872117
262.1672363 0.025637751580530777
263.1087036 0.08011251314739828
263.1434631 0.16136168015016641
264.1520996 0.025451681384103756
265.12323   0.08977834795225334
265.1586304 0.02981760011358983
270.104187  0.03811199877640966
270.138855  0.046075913310714395
271.1113586 0.10745504222380373
271.1479187 1.0
272.1185303 0.10505687456672619
272.1554871 0.2347464312887539
273.1270142 0.1752609272589681
273.1637573 0.16060624578123078
274.1351624 0.13661976715108645
275.1096802 0.056772647818143986
275.1424561 0.3313705758691062
275.1761169 0.05649500555092452
276.1171875 0.03137887126659732
276.151123  0.0796868970214119
277.1222229 0.14672645021424613
277.158844  0.0964406290795095
279.1364441 0.05239234051810233
281.1311951 0.08377467887156369
284.1190796 0.04762276227875088
285.1265259 0.2507324229004398
285.163147  0.11692091287379103
286.135437  0.0782474317049836
286.1713257 0.33423749495079463
287.1427002 0.14474763039499206
287.1794739 0.23150367102712438
288.1503906 0.039471522609837384
289.1217957 0.0982088241720968
289.1584473 0.49906473811181695
290.1325378 0.032983853965353666
290.1672974 0.03845584863683525
291.138031  0.03818030967161905
296.1541748 0.028035485451578492
299.1423645 0.599306485305391
300.1497192 0.1086808223010608
301.1939697 0.04760801995648797
303.1376343 0.1498325758799652
303.1730957 0.06182641193094828
304.1453552 0.03620134899195682
304.1813354 0.09038402849908267
305.1888733 0.07760251513173726
311.1786194 0.031182444628798323
313.1580811 0.08338311254787589
314.1658325 0.2546646308325301
315.1737976 0.08792208309084
317.1528015 0.38651893670983073
319.2052917 0.03231103422580098
329.1897583 0.12050244241703348
332.1761475 0.11138595680123736
347.2020264 0.03182141305117302
433.2284546 0.022413672930532993


