PRECURSORMZ: 267.122699676
COMPOUNDNAME: casmi2022challengebonus157
FORMULA: C14H18O5
SMILES: CC1=C(C=C(C(=C1C(C)C(=O)C)C(=O)OC)O)OC
INCHIKEY: SMOXLKTYOHPSFE-ZETCQYMHSA-N
PRECURSORTYPE: [M+H]+
PRECURSORINTENSITY: 301457955.3047
IONMODE: positive
CHARGE: 1
PARENTMASS: 266.11542367600003
NUM PEAKS: 76
51.77349472 0.0014241533982672118
51.77572632 0.0013582661708635333
52.22220993 0.0010806974199997963
55.01596451 0.002593138434641015
58.77133179 0.008325615446355059
58.77521133 0.007365730010782666
69.03331757 0.0024069608698900763
83.24983978 0.0011457893235544132
91.0539856  0.0017571171403194346
94.85093689 0.0011822837629818193
97.02832794 0.002228818028250361
105.0698547 0.004512249668380875
117.0696716 0.00178708577719938
121.0648041 0.010774237026127353
123.0801315 0.002559589324729344
128.061554  0.0015220103647738974
129.069809  0.009022123672049019
130.0775604 0.005112242271129412
131.085434  0.026395452841544105
133.0647736 0.008043172775364316
135.0803986 0.016199524778588437
137.0597076 0.008608844346929169
145.0636749 0.0013908101825308272
147.080246  0.00443558428104862
149.0601196 0.004551778924898434
149.0960693 0.004502134419792872
151.0753937 0.015427692751637235
157.0641785 0.005579379535278774
158.0726624 0.009115694207992459
159.0802612 0.034366635409683564
160.0879211 0.009861311468427985
161.059433  0.005359102354399555
161.0961761 0.02197116000077977
162.0675049 0.0026836513572016324
163.0758209 0.0055595098985654606
163.0960388 0.001502727126312461
163.1115723 0.04049769347304774
164.0825043 0.002300681885810526
165.0544739 0.045948952508217684
165.0906372 0.009978977200696279
173.0961761 0.022237806781060104
174.0680389 0.009693257198863573
175.0756836 0.016902539163215963
176.0668945 0.0020882871294063935
176.0831909 0.04781283560023031
177.0546417 0.0076380079603800355
178.0625916 0.0017979165626120996
179.1065216 0.013451845910688882
185.0578766 0.0014672617939908616
189.052948  0.004642862724830813
189.0708466 0.001748825352631292
189.0908813 0.18390877099835393
191.0701752 0.0066864907043276064
191.1064606 0.14606749943845457
191.1350555 0.0018655558306157308
192.0779572 0.07166244891923144
193.0498505 0.02815953085408175
193.0857391 0.05717761083243198
202.0627136 0.009301419969623775
203.0704346 0.002509067647383484
205.0500031 0.002284469598988262
205.0857239 0.001342440572218531
207.0649719 0.01797916635366225
207.1013794 0.24606302011245312
217.0857849 0.10340674626850105
217.1099091 0.002752048238165919
218.4795227 0.004431423715122565
219.0646362 0.004571695609279599
220.072876  0.3423166117993207
220.1365204 0.0019835820595760912
235.0163116 0.001899498419089714
235.0411072 0.006850304378427864
235.096344  1.0
235.140625  0.005627964255288926
235.1532593 0.007560622307204904
235.1664734 0.005856418029824178


PRECURSORMZ: 267.122699676
COMPOUNDNAME: casmi2022challengebonus157
FORMULA: C14H18O5
SMILES: CC1=C(C=C(C(=C1C(C)C(=O)C)C(=O)OC)O)OC
INCHIKEY: SMOXLKTYOHPSFE-ZETCQYMHSA-N
PRECURSORTYPE: [M+H]+
PRECURSORINTENSITY: 301457955.3047
IONMODE: positive
CHARGE: 1
PARENTMASS: 266.11542367600003
NUM PEAKS: 76
51.77349472 0.0014241533982672118
51.77572632 0.0013582661708635333
52.22220993 0.0010806974199997963
55.01596451 0.002593138434641015
58.77133179 0.008325615446355059
58.77521133 0.007365730010782666
69.03331757 0.0024069608698900763
83.24983978 0.0011457893235544132
91.0539856  0.0017571171403194346
94.85093689 0.0011822837629818193
97.02832794 0.002228818028250361
105.0698547 0.004512249668380875
117.0696716 0.00178708577719938
121.0648041 0.010774237026127353
123.0801315 0.002559589324729344
128.061554  0.0015220103647738974
129.069809  0.009022123672049019
130.0775604 0.005112242271129412
131.085434  0.026395452841544105
133.0647736 0.008043172775364316
135.0803986 0.016199524778588437
137.0597076 0.008608844346929169
145.0636749 0.0013908101825308272
147.080246  0.00443558428104862
149.0601196 0.004551778924898434
149.0960693 0.004502134419792872
151.0753937 0.015427692751637235
157.0641785 0.005579379535278774
158.0726624 0.009115694207992459
159.0802612 0.034366635409683564
160.0879211 0.009861311468427985
161.059433  0.005359102354399555
161.0961761 0.02197116000077977
162.0675049 0.0026836513572016324
163.0758209 0.0055595098985654606
163.0960388 0.001502727126312461
163.1115723 0.04049769347304774
164.0825043 0.002300681885810526
165.0544739 0.045948952508217684
165.0906372 0.009978977200696279
173.0961761 0.022237806781060104
174.0680389 0.009693257198863573
175.0756836 0.016902539163215963
176.0668945 0.0020882871294063935
176.0831909 0.04781283560023031
177.0546417 0.0076380079603800355
178.0625916 0.0017979165626120996
179.1065216 0.013451845910688882
185.0578766 0.0014672617939908616
189.052948  0.004642862724830813
189.0708466 0.001748825352631292
189.0908813 0.18390877099835393
191.0701752 0.0066864907043276064
191.1064606 0.14606749943845457
191.1350555 0.0018655558306157308
192.0779572 0.07166244891923144
193.0498505 0.02815953085408175
193.0857391 0.05717761083243198
202.0627136 0.009301419969623775
203.0704346 0.002509067647383484
205.0500031 0.002284469598988262
205.0857239 0.001342440572218531
207.0649719 0.01797916635366225
207.1013794 0.24606302011245312
217.0857849 0.10340674626850105
217.1099091 0.002752048238165919
218.4795227 0.004431423715122565
219.0646362 0.004571695609279599
220.072876  0.3423166117993207
220.1365204 0.0019835820595760912
235.0163116 0.001899498419089714
235.0411072 0.006850304378427864
235.096344  1.0
235.140625  0.005627964255288926
235.1532593 0.007560622307204904
235.1664734 0.005856418029824178


