PRECURSORMZ: 311.14891442399994
COMPOUNDNAME: casmi2022challengebonus43
FORMULA: C16H22O6
SMILES: CC1=C(C=C(OC1=O)C=CCCCCC(CC(=O)O)O)OC
INCHIKEY: NKZPOJBFXMXUED-LBPRGKRZSA-N
PRECURSORTYPE: [M+H]+
PRECURSORINTENSITY: 95037812.64844
IONMODE: positive
CHARGE: 1
PARENTMASS: 310.14163842399995
NUM PEAKS: 110
52.23986053 0.0026675071318100685
59.04936981 0.0033382505050080094
61.78052521 0.008523645502948885
61.78421783 0.007904007998207159
62.28484344 0.005241321440467802
62.28796387 0.004358081527795691
65.20294952 0.0024786286980452775
67.05426025 0.01545790086574194
68.77936554 0.0033176080335826264
68.78292847 0.0025336647133680228
69.06983185 0.006190267689709911
79.05434418 0.01583190567184583
81.06988525 0.05397457195061956
83.04911804 0.05077437065671183
91.05440521 0.022654566183121633
92.06584167 0.003395544525278935
93.06989288 0.28991777796042606
95.0488205  0.01211684540928931
95.08555603 0.17592562060974126
97.06479645 0.01139492848670752
105.070076  0.0046026871683566865
107.0853424 0.005470968750010152
109.0650253 0.0067423862780384486
109.1011887 0.012948490035797254
111.0800247 0.00289237405283249
113.0595016 0.006881763727343539
114.6009216 0.0027708937673256405
117.0699005 0.024598716057608706
119.0492249 0.01492358024635208
119.0854263 0.005892451303843292
121.064743  0.07396390381208223
123.0430222 0.0029247684713298717
123.0805283 0.024323339283299043
125.059761  0.028809510350687913
129.0697021 0.00989665802543655
131.085495  0.014544842851383404
133.1016998 0.0032369541526418247
135.0803223 0.05956280340683049
137.0597839 0.007113811171782099
139.0127716 0.0040297922272677904
139.0388794 0.6008739827691939
139.0740051 0.027490913294017753
141.0545502 0.029190499828523602
143.0856323 0.023834732054456183
145.0655365 0.009589305396866341
145.1013489 0.01327953691112043
147.0434875 0.005854972567160326
149.0595093 0.007036295782357412
151.075119  0.07627380649557144
153.0550537 0.023457187535837053
153.0905609 0.003413215592478299
154.0624084 0.005024280549708826
154.076828  0.002891150508562612
155.0701447 0.27618350389468543
159.0804443 0.017603022486744554
159.1165314 0.027907462331232192
161.0961761 0.020514112854102554
163.0751801 0.016127833759831466
163.1112213 0.002778160160918715
167.0701599 0.2746552144039741
169.1016693 0.03380077572089122
171.1164856 0.042304762452397296
173.0958862 0.013178137345339605
174.5047455 0.002984295539206912
175.1125641 0.004246829733980385
177.0552063 0.01363729998661542
177.091217  0.012966458476072409
179.0702057 0.3390051033585226
179.1064148 0.031726913656570946
180.0787201 0.015354739903819446
181.0496063 0.003370471279625431
181.0857849 0.024467188326891733
187.111496  0.05807609030996457
188.1206512 0.009092714356597488
189.0911255 0.005878936691612232
189.1274109 0.005818261162994408
191.0702057 0.04673147074879038
191.0874939 0.005450603981890966
191.1061859 0.012642410654678155
191.1439972 0.004997806731859102
193.0861969 0.03477901554463059
197.0963287 0.01663250674887138
199.1119232 0.004069950282673455
201.1270905 0.035069112920700585
203.1425476 0.01483064587259504
205.0858917 0.012516118889725245
205.1222687 0.01819697677147248
207.0658417 0.0037816849447133453
215.106369  0.0708368554488074
219.1013794 0.005259217546751549
219.1376343 0.0669075444417336
225.8213654 0.0033261440790775297
229.1231537 0.03204910871257123
231.1013489 0.003577231860482644
231.1380768 0.0204437416095954
233.1175537 0.04378753651927493
245.1172485 0.00525934656351985
247.0737305 0.0062540455428481455
247.1326904 1.0
247.2138977 0.004902169774060489
249.0858154 0.0037545427777032386
249.1483154 0.6739592054020859
251.1044464 0.0038792317736886226
251.1275787 0.20629541999372572
251.1574097 0.006597439111394902
257.1174927 0.011116439235738303
275.127655  0.34585747241298315
293.1381531 0.028325498656831382
304.2520447 0.005399302684756208
311.1501465 0.006668077272560409


