PRECURSORMZ: 297.10811223199994
COMPOUNDNAME: casmi2022challengebonus18
FORMULA: C13H16N2O6
SMILES: CC(C(C(=O)OC)NC(=O)C1=C(C(=CC=C1)NC=O)O)O
INCHIKEY: FKDSAXOHMLWBNA-XCBNKYQSSA-N
PRECURSORTYPE: [M+H]+
PRECURSORINTENSITY: 45730753.38281
IONMODE: positive
CHARGE: 1
PARENTMASS: 296.10083623199995
NUM PEAKS: 48
53.03907394 0.003725066583483656
56.04975891 0.06257995669581827
57.03381348 0.007101877135669391
60.04460907 0.014541902301106129
63.02312469 0.005789908303983828
68.98711395 0.0008125975709351791
70.46435547 0.0008096728437701866
73.06486511 0.0038450924717040058
74.06005859 0.0422162641877205
74.06480408 0.0009458288488128076
78.0337677  0.0013293926361548822
80.03735352 0.0009784196633101387
80.04181671 0.001124020533297491
80.04947662 0.10851077433290847
84.04438782 0.012758589921214961
88.03948975 0.0015250798555819479
88.075737   0.014323320294579372
90.03388214 0.011802405928710676
95.03662109 0.030825459421703776
101.0998383 0.000748517219823042
102.0549316 0.017077575229441817
106.0287018 0.007115042251875229
108.0264511 0.0010390535662058668
108.0443649 0.18249437590208017
116.07061   0.02629333261999905
118.0284729 0.01104966056073708
123.0316925 0.0011479572108083794
124.0394135 0.011082727956165115
126.032753  0.0024004937837178645
126.054924  0.21892541450908928
134.0811768 0.003225244979497718
135.0552826 0.003632100787001754
136.0072937 0.002131547533883258
136.0141907 0.01045756549687067
136.0199432 0.007869204455387694
136.0392914 1.0
136.0591888 0.004507329358516995
136.0633698 0.004695557172996299
136.072403  0.0029369993531781825
146.0103149 0.0019696324600188535
146.0235901 0.06308132801657343
148.075531  0.0008548664273132831
154.0352478 0.0017209589205220424
154.0497742 0.06637960378674333
164.034317  0.01584741327427224
182.0459595 0.0008856989635774116
191.0812531 0.004803075298018688
251.1021271 0.000896452892022809


