PRECURSORMZ: 331.0812287879999
COMPOUNDNAME: casmi2022challengebonus238
FORMULA: C17H14O7
SMILES: COC1=C(C(=C2C(=C1O)C(=O)C=C(O2)C3=CC=CC=C3O)OC)O
INCHIKEY: JWOKGWICZPPYPX-UHFFFAOYSA-N
PRECURSORTYPE: [M+H]+
PRECURSORINTENSITY: 38687404.41602
IONMODE: positive
CHARGE: 1
PARENTMASS: 330.07395278799993
NUM PEAKS: 44
58.26607895 0.0006199732865855162
62.00130844 0.0006160933657919523
67.10649109 0.0005944951976366125
74.50849152 0.0014903127676578031
74.51275635 0.0011925020648447247
75.2549057  0.004899536217081914
75.26029205 0.0031768588721544323
79.01057434 0.004685253026795527
79.01631927 0.0029386741257169118
82.76629639 0.011290947911699632
82.77253723 0.006971772164849119
98.9436264  0.000668323628123132
108.5346146 0.0006448011223501352
118.0408859 0.005255000662394316
118.1853867 0.0006525212950372843
121.0285339 0.004100488516729198
124.8779831 0.0007178343029835095
132.7464447 0.000750385407193359
134.3110809 0.000708946525541851
169.4342041 0.0008604136887489837
180.0053253 0.008108733810043445
182.9949646 0.002657124864111483
195.0285645 0.0010728949318531973
197.9971924 0.0009978622514758898
198.0155487 0.015062212492484017
213.0391388 0.014953381189387419
216.7214813 0.0029073433261432033
270.0510254 0.0032594300834137644
280.0405273 0.0008412618174214644
298.046936  0.1996583822038054
300.0626221 0.000823609804883597
300.9516907 0.004234927642636313
301.0338745 0.4732727764119504
309.9597473 0.0007069550171734186
313.0704346 0.0034728847624463043
315.0483398 0.0013203824313030377
315.9686584 0.004136965474143104
316.0574341 0.46542036273110815
330.0748901 0.0009766996492821224
330.9846802 0.008012787771994514
331.0807495 1.0
331.1533203 0.006572491367678755
331.170929  0.004961568873379695
331.2048645 0.00411047759210709


PRECURSORMZ: 331.0812287879999
COMPOUNDNAME: casmi2022challengebonus238
FORMULA: C17H14O7
SMILES: COC1=C(C(=C2C(=C1O)C(=O)C=C(O2)C3=CC=CC=C3O)OC)O
INCHIKEY: JWOKGWICZPPYPX-UHFFFAOYSA-N
PRECURSORTYPE: [M+H]+
PRECURSORINTENSITY: 38687404.41602
IONMODE: positive
CHARGE: 1
PARENTMASS: 330.07395278799993
NUM PEAKS: 44
58.26607895 0.0006199732865855162
62.00130844 0.0006160933657919523
67.10649109 0.0005944951976366125
74.50849152 0.0014903127676578031
74.51275635 0.0011925020648447247
75.2549057  0.004899536217081914
75.26029205 0.0031768588721544323
79.01057434 0.004685253026795527
79.01631927 0.0029386741257169118
82.76629639 0.011290947911699632
82.77253723 0.006971772164849119
98.9436264  0.000668323628123132
108.5346146 0.0006448011223501352
118.0408859 0.005255000662394316
118.1853867 0.0006525212950372843
121.0285339 0.004100488516729198
124.8779831 0.0007178343029835095
132.7464447 0.000750385407193359
134.3110809 0.000708946525541851
169.4342041 0.0008604136887489837
180.0053253 0.008108733810043445
182.9949646 0.002657124864111483
195.0285645 0.0010728949318531973
197.9971924 0.0009978622514758898
198.0155487 0.015062212492484017
213.0391388 0.014953381189387419
216.7214813 0.0029073433261432033
270.0510254 0.0032594300834137644
280.0405273 0.0008412618174214644
298.046936  0.1996583822038054
300.0626221 0.000823609804883597
300.9516907 0.004234927642636313
301.0338745 0.4732727764119504
309.9597473 0.0007069550171734186
313.0704346 0.0034728847624463043
315.0483398 0.0013203824313030377
315.9686584 0.004136965474143104
316.0574341 0.46542036273110815
330.0748901 0.0009766996492821224
330.9846802 0.008012787771994514
331.0807495 1.0
331.1533203 0.006572491367678755
331.170929  0.004961568873379695
331.2048645 0.00411047759210709


