PRECURSORMZ: 525.900679896
COMPOUNDNAME: casmi2022challengebonus153
FORMULA: C15H13I2NO4
SMILES: C1=CC(=CC=C1O)OC2=C(C=C(C=C2I)CC(C(=O)O)N)I
INCHIKEY: ZHSOTLOTTDYIIK-UHFFFAOYSA-N
PRECURSORTYPE: [M+H]+
PRECURSORINTENSITY: 7809903.480469
IONMODE: positive
CHARGE: 1
PARENTMASS: 524.893403896
NUM PEAKS: 87
53.31922913 0.016607061338583872
53.32258987 0.013048368446721447
64.28491211 0.002881768800221654
83.568573   0.0029646428445402346
88.24311066 0.006520076888432456
88.24960327 0.005674290431992898
94.04141998 0.05018959685355591
94.34606934 0.0028569181526707905
101.8286057 0.003704329546384156
102.2896729 0.0034239163220287205
104.0489731 0.003471551985102938
109.0281754 0.01985515715438141
117.0569916 0.03141524856811295
118.0651703 0.021807068000452803
119.9681625 0.006040188218854901
119.9768066 0.004715692100861206
125.2431107 0.003068682949389986
126.9336395 0.0037612661619715764
132.0434875 0.0052687485626571615
161.022995  0.01863308467886282
165.06987   0.014290440687096484
171.0809631 0.006486009289574265
181.064621  0.08905696778526934
183.0804138 0.012783790072832604
184.0522156 0.014887308887635073
185.0595093 0.05574887143856423
197.0593872 0.04934461950071972
198.070816  0.007896056024435327
198.0911407 0.022143868467523836
199.0752563 0.19009225029381777
199.092926  0.0029947182673933804
208.0753937 0.005678970570396416
209.0593262 0.0798254934919794
210.0672607 0.049315900560247865
211.0750885 0.02235278968632935
213.0540466 0.005794585144077005
215.0569    0.007305263828036284
215.0823517 0.01402636482487261
216.9505463 0.027771189513069706
217.9214935 0.0072720317545257
224.0710297 0.01900101295184732
225.0543823 0.015132312238670006
225.0785828 0.03966881721452456
226.0860291 0.13800643763705805
227.0705261 0.01348699133695414
231.9379425 0.005820380742878838
232.9455872 0.05514642775145716
237.0542755 0.07789411782497892
242.9576721 0.0030342093031595764
243.9369659 0.005219375794526828
243.9626465 0.007206071614740087
245.9176178 0.012818135349267621
246.9230347 0.004291258684358787
246.9495239 0.003957103632119244
255.0649414 0.035476497992059104
259.9582214 0.011756799804393744
287.9274902 0.060370231930031486
288.9356384 0.004976111791903634
304.2421875 0.0037833951205989967
304.2756958 0.0035101229957920214
311.9638062 0.07860604923223237
322.9561157 0.021008730510045193
324.9716797 0.25266398183989847
325.9358826 0.0054074113722569405
325.9797058 0.15948750318895497
335.9607849 0.03601401796968952
336.9721985 0.05734728128107995
337.9729919 0.0065235909804229626
339.9160767 0.00558215830818015
339.9592285 0.09034792025257928
344.8279419 0.012676508817596114
351.9822388 0.05447993775619321
352.885498  0.0043659728964032165
352.990509  1.0
353.9735107 0.02152411604528999
358.8421936 0.03230156747586253
363.9591675 0.004801019379210809
364.9675293 0.0060593544524575466
371.8750305 0.0037041331281341574
372.8213196 0.04027052707507327
373.8320618 0.0030735181285948474
380.9606628 0.006100040947521957
381.9693909 0.16218262479933035
385.8529968 0.013754219861647531
386.8397522 0.01766591124540066
466.8625793 0.11026662120345258
479.894989  0.6730867131576633


