PRECURSORMZ: 385.25956293599995
COMPOUNDNAME: casmi2022challengebonus210
FORMULA: C21H38O6
SMILES: CCCCCCCCCCC(=O)OC(C(C)C)C(C(=O)O)OC(=O)C(C)C
INCHIKEY: PEMSRAHOUIFZMA-UHFFFAOYSA-N
PRECURSORTYPE: [M-H]-
PRECURSORINTENSITY: 283718614.0469
IONMODE: negative
CHARGE: -1
PARENTMASS: 386.26683893599994
NUM PEAKS: 18
87.04380798 0.005672657300693138
93.08123016 0.0012666364335460092
118.1684113 0.001263249082310047
129.0542145 0.0052650566389924654
171.1381989 0.0137855678014189
185.0973358 0.0021365315807623394
185.1149139 0.008373750295441138
185.1228333 0.00739243753060112
185.153656  1.0
185.184433  0.005573253125386094
185.1938171 0.007144111287438547
185.202774  0.007544294353681428
199.1694336 0.01789383069125437
213.1852264 0.005449746076829108
216.0761414 0.005356054227809548
255.3975677 0.0013969519482536252
304.2894897 0.0017795590264526144
324.5432129 0.0013728572108298786


