PRECURSORMZ: 965.4716501480003
COMPOUNDNAME: casmi2022challengebonus134
FORMULA: C47H74O19
SMILES: CC1CCC2(CCC3(C(=CCC4C3(CCC5C4(CCC(C5(C)C)OC6C(C(C(C(O6)C(=O)O)O)O)OC7C(C(C(CO7)O)O)O)C)C)C2C1(C)O)C)C(=O)OC8C(C(C(C(O8)CO)O)O)O
INCHIKEY: RTJHZPMEHNGXKQ-SQCZSNSMSA-N
PRECURSORTYPE: [M+Na]+
PRECURSORINTENSITY: 1314196.806641
IONMODE: positive
CHARGE: 1
PARENTMASS: 942.4824321480003
NUM PEAKS: 18
137.1331024 0.05357806502333377
155.0314636 0.06061285738404073
163.0       0.22784987106789342
181.0108643 0.12119845708227278
185.0420837 0.46661613954769365
217.0322876 0.2417921448319636
239.0529022 0.810180702713809
269.0617676 0.08304716232788562
295.0429993 0.06410829453851216
313.0532227 0.26197394357796955
331.0635986 0.5730092235324878
349.0742188 0.46278351376056454
477.3346252 0.12469760232288046
495.3436279 0.5681813734480423
611.4103394 0.05282601311158507
639.3880615 0.12181479304143418
657.3980713 1.0
669.3971558 0.08413312414349783


PRECURSORMZ: 965.4716501480003
COMPOUNDNAME: casmi2022challengebonus134
FORMULA: C47H74O19
SMILES: CC1CCC2(CCC3(C(=CCC4C3(CCC5C4(CCC(C5(C)C)OC6C(C(C(C(O6)C(=O)O)O)O)OC7C(C(C(CO7)O)O)O)C)C)C2C1(C)O)C)C(=O)OC8C(C(C(C(O8)CO)O)O)O
INCHIKEY: RTJHZPMEHNGXKQ-SQCZSNSMSA-N
PRECURSORTYPE: [M+Na]+
PRECURSORINTENSITY: 1314196.806641
IONMODE: positive
CHARGE: 1
PARENTMASS: 942.4824321480003
NUM PEAKS: 18
137.1331024 0.05357806502333377
155.0314636 0.06061285738404073
163.0       0.22784987106789342
181.0108643 0.12119845708227278
185.0420837 0.46661613954769365
217.0322876 0.2417921448319636
239.0529022 0.810180702713809
269.0617676 0.08304716232788562
295.0429993 0.06410829453851216
313.0532227 0.26197394357796955
331.0635986 0.5730092235324878
349.0742188 0.46278351376056454
477.3346252 0.12469760232288046
495.3436279 0.5681813734480423
611.4103394 0.05282601311158507
639.3880615 0.12181479304143418
657.3980713 1.0
669.3971558 0.08413312414349783


