PRECURSORMZ: 378.22750399599994
COMPOUNDNAME: casmi2022challengebonus208
FORMULA: C21H28O5
SMILES: CC1=C2COC(=O)C2=C(C(=C1OC)CC=C(C)CCCC(C)C(=O)C)O
INCHIKEY: HRYHMFTVUSXJPA-ZDUSSCGKSA-N
PRECURSORTYPE: [M+NH4]+
PRECURSORINTENSITY: 8100122.25
IONMODE: positive
CHARGE: 1
PARENTMASS: 360.19368099599996
NUM PEAKS: 29
55.05465317 0.007033521440561069
58.08727264 0.008270208541294495
58.68673706 0.00633385516924264
67.05441284 0.030717091131510253
74.051651   0.00741248248436148
79.05447388 0.012440641534978219
81.06988525 0.0159216853871921
84.8789444  0.008157648066714639
91.05429077 0.2869069207304554
93.06980133 0.014242199267131649
95.04902649 0.009855350070696342
95.08561707 0.04629894999956908
103.0542221 0.25585430436045614
105.0446777 0.011676310301578395
105.0699768 0.00952539114879792
123.1168365 0.008590800493834466
131.0489197 0.08971221121376025
135.0809021 0.03140271368191905
149.0598907 0.008173501018746043
159.0440674 0.968188051546167
161.0605774 0.010522210957743115
177.0545959 1.0
179.0704193 0.05436543071994598
207.0652313 0.3273422920797375
215.8302155 0.04204061879126378
221.0831604 0.007287994867486969
304.2338562 0.011977483120602476
304.2702942 0.012979655370304934
403.6134949 0.0074659443134504995


PRECURSORMZ: 378.22750399599994
COMPOUNDNAME: casmi2022challengebonus208
FORMULA: C21H28O5
SMILES: CC1=C2COC(=O)C2=C(C(=C1OC)CC=C(C)CCCC(C)C(=O)C)O
INCHIKEY: HRYHMFTVUSXJPA-ZDUSSCGKSA-N
PRECURSORTYPE: [M+NH4]+
PRECURSORINTENSITY: 8100122.25
IONMODE: positive
CHARGE: 1
PARENTMASS: 360.19368099599996
NUM PEAKS: 29
55.05465317 0.007033521440561069
58.08727264 0.008270208541294495
58.68673706 0.00633385516924264
67.05441284 0.030717091131510253
74.051651   0.00741248248436148
79.05447388 0.012440641534978219
81.06988525 0.0159216853871921
84.8789444  0.008157648066714639
91.05429077 0.2869069207304554
93.06980133 0.014242199267131649
95.04902649 0.009855350070696342
95.08561707 0.04629894999956908
103.0542221 0.25585430436045614
105.0446777 0.011676310301578395
105.0699768 0.00952539114879792
123.1168365 0.008590800493834466
131.0489197 0.08971221121376025
135.0809021 0.03140271368191905
149.0598907 0.008173501018746043
159.0440674 0.968188051546167
161.0605774 0.010522210957743115
177.0545959 1.0
179.0704193 0.05436543071994598
207.0652313 0.3273422920797375
215.8302155 0.04204061879126378
221.0831604 0.007287994867486969
304.2338562 0.011977483120602476
304.2702942 0.012979655370304934
403.6134949 0.0074659443134504995


