PRECURSORMZ: 387.1802145519999
COMPOUNDNAME: casmi2022challengebonus67
FORMULA: C22H26O6
SMILES: CC1CC2=CC3=C(C(=C2C4=C(C(=C(C=C4CC1C)OC)OC)OC)O)OCO3
INCHIKEY: PDDXWOMYBJCSQB-UHFFFAOYSA-N
PRECURSORTYPE: [M+H]+
PRECURSORINTENSITY: 28542128.21875
IONMODE: positive
CHARGE: 1
PARENTMASS: 386.1729385519999
NUM PEAKS: 286
53.0386467  0.006008433089077429
53.26177979 0.007235605162622899
53.26419449 0.004852802805886828
55.018116   0.011154753773971354
55.05447006 0.04444537694648502
60.26012421 0.004365106887822461
63.76371002 0.0047774456486489375
64.26621246 0.0042231272621089996
67.05402374 0.016329900308429266
67.7624588  0.006733135462107395
68.99734497 0.03993283304650928
69.03372955 0.0052572117780119694
69.06996918 0.031085678539515094
71.24147034 0.004679841557520157
75.04412079 0.006642315905226426
79.05423737 0.018929170987898203
91.05418396 0.0254704496747707
93.07028198 0.006639165430315238
95.04882812 0.005448782093181436
95.08534241 0.005749173256333928
105.0696564 0.010871311790924054
107.048912  0.008905091494571674
109.0646286 0.00712783408240512
111.0808334 0.005583749305372479
115.0547791 0.02201710270395432
117.0690155 0.004856426320680928
128.0623627 0.02101684976616048
129.0699158 0.03227455224967857
131.049118  0.008900908826132498
131.0852509 0.008617716397252577
137.0597687 0.00974470125971382
139.0547638 0.01809941861236748
139.2231293 0.005128834904748197
140.0622101 0.009356689050839728
141.0696716 0.046884671688505714
142.0776672 0.011299150736003427
143.0500183 0.007991732029081867
143.0858002 0.009219250315099042
144.0571442 0.011378935429384635
145.0648956 0.04185533274151426
146.0726471 0.0065323193407788365
148.0519714 0.010433091158158537
151.0389252 0.02495747409529327
151.0750885 0.005257785869758523
152.0626526 0.020810228288496876
152.0829163 0.0059301902421012515
153.0697174 0.026256156325566875
155.049057  0.036620112778050676
155.0853119 0.007385934601305386
156.0568695 0.04813764918605881
157.0647736 0.13411165614886847
157.102066  0.005464307760078337
158.0724487 0.02825935926074754
159.044342  0.008225627551169993
159.0802917 0.0727703794977956
161.0599823 0.02298451993707692
165.0550995 0.005901099021556516
165.06987   0.018226258911497303
166.0621643 0.01847711240080913
167.0492401 0.037784263051406454
167.0699921 0.0068260662706768295
167.0852509 0.005570493644106143
168.0566559 0.04610712651343706
169.0644989 0.0901602699192871
170.0727539 0.036986153675653104
171.0437622 0.031900363935738314
171.0805511 0.06675372459477652
172.0516205 0.007047638737682816
172.0882568 0.007554185075406693
173.0594635 0.05543740617231953
173.0964203 0.008764526887851795
174.0678253 0.02285507279277142
175.0752258 0.04837370165285185
176.0832672 0.018828518645337685
177.0533447 0.005089694149599315
179.0856781 0.01072353354566636
180.056488  0.01948042325586522
181.0647583 0.0648002801830165
181.0856934 0.03604290219021297
182.0721893 0.024763386563557477
183.0437622 0.08461801163037706
183.0805817 0.028777098630105555
184.0516968 0.15715823891859523
185.0595856 0.3163433169497078
186.0673218 0.029515753190000542
187.0382996 0.009687192497714693
187.0751648 0.07745560550867134
188.0832062 0.04447799941707896
189.0540619 0.037619018357663826
189.0898438 0.03187956072542852
190.0617676 0.005900876414552751
191.0690613 0.008933676577086795
191.1066742 0.010668707783870513
193.0644684 0.005881330933814167
195.0446472 0.010919752246559255
195.0804443 0.028247207261573558
196.0520935 0.07055379017526847
196.0883179 0.006125596427430342
197.0596161 0.17031149159027295
197.0953674 0.026381866015440736
198.0675049 0.12800807203926312
199.0402069 0.045551368211067506
199.0752258 0.1815786865050779
200.0461578 0.026999314576632783
200.0816345 0.03826919483487266
201.0547333 0.11065054633288751
201.0899048 0.05102706934908325
202.0629272 0.023870165416405756
202.0986481 0.02640240912704087
203.0296478 0.0046250119879729604
203.0699005 0.06687526801883253
203.1048584 0.03594407873993076
204.0774689 0.032356797336259284
204.1144409 0.022801084736279217
205.0857849 0.02894883641866328
207.0808258 0.005985904088680541
208.0520325 0.007958603420458309
208.0884857 0.007516551603996406
209.0595856 0.04522830686781317
209.0959625 0.02302340586578734
210.0679169 0.04275963268775865
210.1039886 0.005910263400416803
211.0390778 0.14277732971023485
211.0749664 0.06428729991707584
211.1116791 0.018870107491720144
212.0469818 0.14262223589586392
212.083252  0.017736801176159805
213.0545197 0.9868380117608482
213.0913239 0.03828708775151217
214.0625916 0.09032369626529371
214.0982513 0.006471585120456727
215.0334167 0.02755517598119356
215.0701141 0.13108291680672943
216.0416718 0.018648774034339254
216.0782623 0.029921134603247395
217.0861816 0.02308316061529288
218.0937195 0.044996261327087915
219.0832825 0.004482426636885975
219.1017456 0.06216921536533081
220.0009155 0.005330686734452171
220.0879059 0.005493486266000804
221.0594482 0.005497895056291172
223.0373077 0.0071157090303947505
223.0758514 0.01755719481582687
223.111496  0.031150482953158688
224.046524  0.02130337544201784
224.0834198 0.02053168834599566
225.0544281 0.21077685214088512
225.0902557 0.038677404528683144
226.0623932 0.30075505296340815
227.0340118 0.04109020669402411
227.0702515 0.3794959210148735
227.1069946 0.012928088030600431
228.0414429 0.08392539922855566
228.0778198 0.3552700178902922
229.0229034 0.008860208064533484
229.0492706 0.35226449528703013
229.0862427 0.0648062554236439
230.0567474 0.03246648400832526
230.0943756 0.006380573418583034
231.0650635 0.018319596856560406
231.1014099 0.01702548509955885
233.0957031 0.018303519944425296
235.0758057 0.02299248458134849
235.1113739 0.010387330187879186
235.1351776 0.009105674464354183
235.2223511 0.004777035290211643
236.0463715 0.007330565795581873
236.0830994 0.018848099860358392
237.0542755 0.07097074012301628
237.0907745 0.021997133684100736
238.0621338 0.030520402030310846
238.0988464 0.007436839550795375
239.0337372 0.06217569674398781
239.0693817 0.06774015949571556
239.1056213 0.035657178147014426
240.0414734 0.07687521515552721
240.0751953 0.03707674535325923
240.1142273 0.005558618732070998
241.0492554 0.3688798820480939
241.0849609 0.09225311318003675
241.1224213 0.024090192522159284
242.0571289 0.13349162768966435
242.0934296 0.01900811328951253
243.036087  0.008772039288420979
243.0652008 0.38063184472015177
243.0951538 0.01189067846903069
244.0422363 0.007547283086674151
244.0729523 0.1519212099803221
245.0805511 0.037362821128645814
249.090683  0.02857902291815493
250.1000061 0.00701925341566312
251.0701294 0.03076328970373529
251.1062775 0.06665932516579019
252.0417633 0.00826589364330376
252.0780029 0.022295628587065828
253.0492859 0.2596122735247895
253.0847931 0.05017379561456517
253.1157074 0.009033717922002705
254.0575562 0.1358762501515602
254.0899658 0.014037136040829368
255.0317535 0.023785462279857138
255.0650787 0.4742107677229105
255.0983734 0.02922133316682017
255.1380157 0.008977524884557414
256.0374146 0.05785651631717773
256.0726318 0.40901883980716364
256.1033936 0.009732743162956334
257.01297   0.009748479720698788
257.0442505 0.2793086349472338
257.0804138 0.14203440343909918
257.113678  0.013114451099305556
258.0521851 0.032137004553667615
258.0885925 0.028571922926350617
259.059906  0.06684573861397512
259.0958862 0.03835957796486472
261.0903015 0.0064933437834590645
262.0974121 0.005342908444766866
263.0697937 0.018153660909490298
263.1038818 0.016032949595100824
264.0774536 0.010320488334343235
265.0860291 0.050420865956428786
265.12146   0.01803623337177233
266.0593262 0.010482299022148825
266.0939026 0.03313791125308304
267.0645752 0.08436903858443916
267.1013489 0.06092651059519358
268.0397339 0.010809345030770568
268.0730591 0.20100688850109136
268.1067505 0.01184047590321831
269.044342  0.07793700369885673
269.0805359 0.14806646274677884
269.1147156 0.018789148839298025
270.052124  0.09420614049656864
270.0882263 0.05149136663491619
271.0600281 1.0
271.0919495 0.03439298594293477
272.0672302 0.06007540200669107
273.0741272 0.05420683934196657
277.0861511 0.009290734110471412
278.0940857 0.018395966289857527
279.0652466 0.01689321904761619
279.1014404 0.08584036309067526
280.0727234 0.021942379390869255
280.106842  0.016714757355928936
281.0462646 0.012975879411077284
281.0810242 0.03888578343006068
281.116333  0.02968911015160671
282.052002  0.018879044577113428
282.088623  0.030954933244892898
283.0594788 0.06243391149542942
283.0967102 0.04187205404234448
283.1293335 0.009049827639380477
284.068634  0.0370769562441049
284.1005249 0.005552540975060353
285.0380859 0.018292917992967006
285.0751953 0.18778918758697608
286.0484924 0.0183952316867451
286.0828247 0.18567236838030507
287.0538025 0.03039274511496194
287.0910645 0.1448124919814614
293.0812073 0.02400993918245436
293.1174927 0.017893213058316173
294.0900574 0.014693592378776005
295.0613098 0.009810051646324543
295.0965881 0.04067681845833655
295.131958  0.017161753391106052
296.1044312 0.016268192475369637
297.0748291 0.025093229219116
297.1124878 0.04165273693577139
298.0836182 0.010031513981444456
299.0549316 0.008147305620126747
299.0905457 0.06598498997059375
299.1256714 0.008793236747450545
300.0630188 0.029727525090761795
301.0708313 0.025928164822987036
309.1116638 0.07961805212141944
310.0822449 0.017250339262446665
311.0916443 0.015158674647201173
311.1274414 0.041901447539768016
312.100708  0.006762663695348997
315.0853577 0.06799408144683193
323.127655  0.028064107142897313
324.1345825 0.06157754469517481
325.1070862 0.031157229116988594
336.1115417 0.006223396471303196


PRECURSORMZ: 387.1802145519999
COMPOUNDNAME: casmi2022challengebonus67
FORMULA: C22H26O6
SMILES: CC1CC2=CC3=C(C(=C2C4=C(C(=C(C=C4CC1C)OC)OC)OC)O)OCO3
INCHIKEY: PDDXWOMYBJCSQB-UHFFFAOYSA-N
PRECURSORTYPE: [M+H]+
PRECURSORINTENSITY: 28542128.21875
IONMODE: positive
CHARGE: 1
PARENTMASS: 386.1729385519999
NUM PEAKS: 286
53.0386467  0.006008433089077429
53.26177979 0.007235605162622899
53.26419449 0.004852802805886828
55.018116   0.011154753773971354
55.05447006 0.04444537694648502
60.26012421 0.004365106887822461
63.76371002 0.0047774456486489375
64.26621246 0.0042231272621089996
67.05402374 0.016329900308429266
67.7624588  0.006733135462107395
68.99734497 0.03993283304650928
69.03372955 0.0052572117780119694
69.06996918 0.031085678539515094
71.24147034 0.004679841557520157
75.04412079 0.006642315905226426
79.05423737 0.018929170987898203
91.05418396 0.0254704496747707
93.07028198 0.006639165430315238
95.04882812 0.005448782093181436
95.08534241 0.005749173256333928
105.0696564 0.010871311790924054
107.048912  0.008905091494571674
109.0646286 0.00712783408240512
111.0808334 0.005583749305372479
115.0547791 0.02201710270395432
117.0690155 0.004856426320680928
128.0623627 0.02101684976616048
129.0699158 0.03227455224967857
131.049118  0.008900908826132498
131.0852509 0.008617716397252577
137.0597687 0.00974470125971382
139.0547638 0.01809941861236748
139.2231293 0.005128834904748197
140.0622101 0.009356689050839728
141.0696716 0.046884671688505714
142.0776672 0.011299150736003427
143.0500183 0.007991732029081867
143.0858002 0.009219250315099042
144.0571442 0.011378935429384635
145.0648956 0.04185533274151426
146.0726471 0.0065323193407788365
148.0519714 0.010433091158158537
151.0389252 0.02495747409529327
151.0750885 0.005257785869758523
152.0626526 0.020810228288496876
152.0829163 0.0059301902421012515
153.0697174 0.026256156325566875
155.049057  0.036620112778050676
155.0853119 0.007385934601305386
156.0568695 0.04813764918605881
157.0647736 0.13411165614886847
157.102066  0.005464307760078337
158.0724487 0.02825935926074754
159.044342  0.008225627551169993
159.0802917 0.0727703794977956
161.0599823 0.02298451993707692
165.0550995 0.005901099021556516
165.06987   0.018226258911497303
166.0621643 0.01847711240080913
167.0492401 0.037784263051406454
167.0699921 0.0068260662706768295
167.0852509 0.005570493644106143
168.0566559 0.04610712651343706
169.0644989 0.0901602699192871
170.0727539 0.036986153675653104
171.0437622 0.031900363935738314
171.0805511 0.06675372459477652
172.0516205 0.007047638737682816
172.0882568 0.007554185075406693
173.0594635 0.05543740617231953
173.0964203 0.008764526887851795
174.0678253 0.02285507279277142
175.0752258 0.04837370165285185
176.0832672 0.018828518645337685
177.0533447 0.005089694149599315
179.0856781 0.01072353354566636
180.056488  0.01948042325586522
181.0647583 0.0648002801830165
181.0856934 0.03604290219021297
182.0721893 0.024763386563557477
183.0437622 0.08461801163037706
183.0805817 0.028777098630105555
184.0516968 0.15715823891859523
185.0595856 0.3163433169497078
186.0673218 0.029515753190000542
187.0382996 0.009687192497714693
187.0751648 0.07745560550867134
188.0832062 0.04447799941707896
189.0540619 0.037619018357663826
189.0898438 0.03187956072542852
190.0617676 0.005900876414552751
191.0690613 0.008933676577086795
191.1066742 0.010668707783870513
193.0644684 0.005881330933814167
195.0446472 0.010919752246559255
195.0804443 0.028247207261573558
196.0520935 0.07055379017526847
196.0883179 0.006125596427430342
197.0596161 0.17031149159027295
197.0953674 0.026381866015440736
198.0675049 0.12800807203926312
199.0402069 0.045551368211067506
199.0752258 0.1815786865050779
200.0461578 0.026999314576632783
200.0816345 0.03826919483487266
201.0547333 0.11065054633288751
201.0899048 0.05102706934908325
202.0629272 0.023870165416405756
202.0986481 0.02640240912704087
203.0296478 0.0046250119879729604
203.0699005 0.06687526801883253
203.1048584 0.03594407873993076
204.0774689 0.032356797336259284
204.1144409 0.022801084736279217
205.0857849 0.02894883641866328
207.0808258 0.005985904088680541
208.0520325 0.007958603420458309
208.0884857 0.007516551603996406
209.0595856 0.04522830686781317
209.0959625 0.02302340586578734
210.0679169 0.04275963268775865
210.1039886 0.005910263400416803
211.0390778 0.14277732971023485
211.0749664 0.06428729991707584
211.1116791 0.018870107491720144
212.0469818 0.14262223589586392
212.083252  0.017736801176159805
213.0545197 0.9868380117608482
213.0913239 0.03828708775151217
214.0625916 0.09032369626529371
214.0982513 0.006471585120456727
215.0334167 0.02755517598119356
215.0701141 0.13108291680672943
216.0416718 0.018648774034339254
216.0782623 0.029921134603247395
217.0861816 0.02308316061529288
218.0937195 0.044996261327087915
219.0832825 0.004482426636885975
219.1017456 0.06216921536533081
220.0009155 0.005330686734452171
220.0879059 0.005493486266000804
221.0594482 0.005497895056291172
223.0373077 0.0071157090303947505
223.0758514 0.01755719481582687
223.111496  0.031150482953158688
224.046524  0.02130337544201784
224.0834198 0.02053168834599566
225.0544281 0.21077685214088512
225.0902557 0.038677404528683144
226.0623932 0.30075505296340815
227.0340118 0.04109020669402411
227.0702515 0.3794959210148735
227.1069946 0.012928088030600431
228.0414429 0.08392539922855566
228.0778198 0.3552700178902922
229.0229034 0.008860208064533484
229.0492706 0.35226449528703013
229.0862427 0.0648062554236439
230.0567474 0.03246648400832526
230.0943756 0.006380573418583034
231.0650635 0.018319596856560406
231.1014099 0.01702548509955885
233.0957031 0.018303519944425296
235.0758057 0.02299248458134849
235.1113739 0.010387330187879186
235.1351776 0.009105674464354183
235.2223511 0.004777035290211643
236.0463715 0.007330565795581873
236.0830994 0.018848099860358392
237.0542755 0.07097074012301628
237.0907745 0.021997133684100736
238.0621338 0.030520402030310846
238.0988464 0.007436839550795375
239.0337372 0.06217569674398781
239.0693817 0.06774015949571556
239.1056213 0.035657178147014426
240.0414734 0.07687521515552721
240.0751953 0.03707674535325923
240.1142273 0.005558618732070998
241.0492554 0.3688798820480939
241.0849609 0.09225311318003675
241.1224213 0.024090192522159284
242.0571289 0.13349162768966435
242.0934296 0.01900811328951253
243.036087  0.008772039288420979
243.0652008 0.38063184472015177
243.0951538 0.01189067846903069
244.0422363 0.007547283086674151
244.0729523 0.1519212099803221
245.0805511 0.037362821128645814
249.090683  0.02857902291815493
250.1000061 0.00701925341566312
251.0701294 0.03076328970373529
251.1062775 0.06665932516579019
252.0417633 0.00826589364330376
252.0780029 0.022295628587065828
253.0492859 0.2596122735247895
253.0847931 0.05017379561456517
253.1157074 0.009033717922002705
254.0575562 0.1358762501515602
254.0899658 0.014037136040829368
255.0317535 0.023785462279857138
255.0650787 0.4742107677229105
255.0983734 0.02922133316682017
255.1380157 0.008977524884557414
256.0374146 0.05785651631717773
256.0726318 0.40901883980716364
256.1033936 0.009732743162956334
257.01297   0.009748479720698788
257.0442505 0.2793086349472338
257.0804138 0.14203440343909918
257.113678  0.013114451099305556
258.0521851 0.032137004553667615
258.0885925 0.028571922926350617
259.059906  0.06684573861397512
259.0958862 0.03835957796486472
261.0903015 0.0064933437834590645
262.0974121 0.005342908444766866
263.0697937 0.018153660909490298
263.1038818 0.016032949595100824
264.0774536 0.010320488334343235
265.0860291 0.050420865956428786
265.12146   0.01803623337177233
266.0593262 0.010482299022148825
266.0939026 0.03313791125308304
267.0645752 0.08436903858443916
267.1013489 0.06092651059519358
268.0397339 0.010809345030770568
268.0730591 0.20100688850109136
268.1067505 0.01184047590321831
269.044342  0.07793700369885673
269.0805359 0.14806646274677884
269.1147156 0.018789148839298025
270.052124  0.09420614049656864
270.0882263 0.05149136663491619
271.0600281 1.0
271.0919495 0.03439298594293477
272.0672302 0.06007540200669107
273.0741272 0.05420683934196657
277.0861511 0.009290734110471412
278.0940857 0.018395966289857527
279.0652466 0.01689321904761619
279.1014404 0.08584036309067526
280.0727234 0.021942379390869255
280.106842  0.016714757355928936
281.0462646 0.012975879411077284
281.0810242 0.03888578343006068
281.116333  0.02968911015160671
282.052002  0.018879044577113428
282.088623  0.030954933244892898
283.0594788 0.06243391149542942
283.0967102 0.04187205404234448
283.1293335 0.009049827639380477
284.068634  0.0370769562441049
284.1005249 0.005552540975060353
285.0380859 0.018292917992967006
285.0751953 0.18778918758697608
286.0484924 0.0183952316867451
286.0828247 0.18567236838030507
287.0538025 0.03039274511496194
287.0910645 0.1448124919814614
293.0812073 0.02400993918245436
293.1174927 0.017893213058316173
294.0900574 0.014693592378776005
295.0613098 0.009810051646324543
295.0965881 0.04067681845833655
295.131958  0.017161753391106052
296.1044312 0.016268192475369637
297.0748291 0.025093229219116
297.1124878 0.04165273693577139
298.0836182 0.010031513981444456
299.0549316 0.008147305620126747
299.0905457 0.06598498997059375
299.1256714 0.008793236747450545
300.0630188 0.029727525090761795
301.0708313 0.025928164822987036
309.1116638 0.07961805212141944
310.0822449 0.017250339262446665
311.0916443 0.015158674647201173
311.1274414 0.041901447539768016
312.100708  0.006762663695348997
315.0853577 0.06799408144683193
323.127655  0.028064107142897313
324.1345825 0.06157754469517481
325.1070862 0.031157229116988594
336.1115417 0.006223396471303196


