PRECURSORMZ: 281.13834973999997
COMPOUNDNAME: casmi2022challengebonus80
FORMULA: C15H20O5
SMILES: CC1CCC=C(C1(C)CC2=C(COC2=O)CO)C(=O)O
INCHIKEY: NJQQRUULYCFGOY-UHFFFAOYSA-N
PRECURSORTYPE: [M+H]+
PRECURSORINTENSITY: 5403208.088867
IONMODE: positive
CHARGE: 1
PARENTMASS: 280.13107374
NUM PEAKS: 47
53.03876495 0.05265677127040976
54.55283737 0.030730609564565838
55.05450439 0.1861447159455958
67.05426788 0.47471053464949
69.06971741 0.07228032352119107
79.05422211 0.4147464679295813
79.76631927 0.0346870810192055
81.06991577 0.6664109338292973
83.04901123 0.14758734656452224
91.05431366 0.611689874703302
93.07000732 0.46243066063227295
95.0490799  0.08020533206345644
95.08544159 1.0
105.0632248 0.046053481847644705
105.0699463 0.64827902502926
107.085701  0.45189144850796786
108.0931091 0.15921753525141974
109.0647964 0.06784768625433789
109.1012955 0.14212440309758934
111.0440903 0.07768807601145998
115.0539017 0.0691413789700415
117.069725  0.19564932538916735
119.0491943 0.04531165242730499
119.0855255 0.4516094777067997
121.0644684 0.042950831362669604
121.1013565 0.04222367419140912
128.0619202 0.1670415067913967
129.0697174 0.321150953235702
130.0784149 0.03842424607537361
131.0852509 0.4482217386205365
133.0645294 0.0694866520977814
133.1010742 0.22531415427179174
142.0780182 0.05721912254120438
143.0857544 0.4951263630025108
145.1006012 0.19026477473936373
147.0805969 0.07097372868954131
156.0936279 0.38622246661419074
157.1002655 0.1330511484826537
158.1088257 0.04785493661824979
159.1159363 0.04878981616639396
161.132309  0.25008716321421703
171.1164246 0.37118000200755913
175.074585  0.0555159798662785
186.0466156 0.03570312898702507
189.1267395 0.07615940762811624
199.1114349 0.05094708881961903
217.1215668 0.07109624387043963


