PRECURSORMZ: 219.079346372
COMPOUNDNAME: casmi2022challengebonus155
FORMULA: C10H16O3
SMILES: CC1=C(C(CCC1O)(C)C)C(=O)O
INCHIKEY: IJTFWVKHFTZVSR-ZETCQYMHSA-N
PRECURSORTYPE: [M+Cl]-
PRECURSORINTENSITY: 1515444.996094
IONMODE: negative
CHARGE: -1
PARENTMASS: 184.109944372
NUM PEAKS: 6
62.30146027 0.05243488925064525
112.0014801 0.048591134453900175
139.1116943 0.1906611113782256
183.1014099 1.0
201.0455627 0.05510612285420298
219.6818085 0.05774951270605508


PRECURSORMZ: 219.079346372
COMPOUNDNAME: casmi2022challengebonus155
FORMULA: C10H16O3
SMILES: CC1=C(C(CCC1O)(C)C)C(=O)O
INCHIKEY: IJTFWVKHFTZVSR-ZETCQYMHSA-N
PRECURSORTYPE: [M+Cl]-
PRECURSORINTENSITY: 1515444.996094
IONMODE: negative
CHARGE: -1
PARENTMASS: 184.109944372
NUM PEAKS: 6
62.30146027 0.05243488925064525
112.0014801 0.048591134453900175
139.1116943 0.1906611113782256
183.1014099 1.0
201.0455627 0.05510612285420298
219.6818085 0.05774951270605508


