PRECURSORMZ: 315.091022688
COMPOUNDNAME: casmi2022challengebonus177
FORMULA: C15H14N4O2S
SMILES: C1=CC=C(C=C1)N2C(=CC=N2)NS(=O)(=O)C3=CC=C(C=C3)N
INCHIKEY: QWCJHSGMANYXCW-UHFFFAOYSA-N
PRECURSORTYPE: [M+H]+
PRECURSORINTENSITY: 32385018.41992
IONMODE: positive
CHARGE: 1
PARENTMASS: 314.083746688
NUM PEAKS: 82
52.01845169 0.009926409796058152
53.03888702 0.005737659572705667
54.03417587 0.0037741046634294007
55.01824951 0.0018304709452515886
56.0370903  0.001207115199436447
64.60704041 0.0010444439353576988
65.03548431 0.0010910871485452023
65.03868103 0.09623036700393839
68.04953003 0.037115489176611345
69.03351593 0.0018485886973426738
77.03936005 0.004137722456660241
78.03403473 0.0048922985647585245
78.04639435 0.0016993796775438001
79.01777649 0.007187630306710133
80.04943085 0.02007630883135728
90.27679443 0.0008277820009303739
91.04169464 0.004001796857959072
92.03193665 0.004361408834306896
92.0355835  0.0021122523238320057
92.04464722 0.008215786569309231
92.04943085 0.40241329234862583
92.06333923 0.004957729423211813
93.05722046 0.007046604861775501
94.04212189 0.0010419938024587188
94.06506348 0.0022481390720590815
95.04923248 0.005236067539774077
96.04398346 0.006805060142203356
103.0540771 0.015567050188837991
104.0494003 0.03215868372867481
105.0447083 0.004210211225241263
105.0575943 0.0050056624721391925
106.0529861 0.0013878765762689632
106.0568161 0.001061901673394627
106.0651093 0.0880677642916322
106.07341   0.0022925080894945563
107.7123566 0.0010258125799991202
108.0222549 0.001918574496379928
108.0378342 0.005928531729920129
108.0442734 0.33518808723091
108.0618973 0.0019770937444907807
110.0599899 0.05504336235059111
116.0490036 0.01700267066772618
117.0571594 0.01066234167264073
118.0526047 0.004316784957761374
118.0654831 0.0032963330771789115
119.05233   0.0015107616248362054
119.0602798 0.06540059149194118
120.0554199 0.008040574039189325
128.0497284 0.002093457796482238
130.0650482 0.045112985810126745
131.0484009 0.001783904767004143
131.0511932 0.0022534582569691377
131.0602264 0.18387297301936073
132.0575562 0.0009473400613983593
132.0680389 0.054311897168515644
132.0795135 0.0014029674324228015
132.2661896 0.0010142852003304252
133.0637665 0.014767923909093606
133.0756836 0.09306810358281256
134.0597992 0.0015344912724092846
140.0163574 0.04518195583576852
142.0523224 0.010075528127750347
143.060257  0.02351949270455763
156.0111389 0.030778420069306332
156.0559998 0.004477022073136175
157.0635986 0.0019969940673345795
158.0314178 0.007505828121680615
158.0401611 0.005129245164219773
158.0711365 1.0
158.0950165 0.002849187874662428
158.1023407 0.011222169456223651
159.0788879 0.17315431281146448
160.0708313 0.0023530340200929715
160.074585  0.00326481934861663
160.0866547 0.2396517326640109
160.1184998 0.0015159064266182512
166.0649719 0.0014547606644560265
180.0562134 0.0010671639146097873
180.3783569 0.000904091325133679
222.0326691 0.0015001078258277995
249.072403  0.0009497524538367921
334.430542  0.0009540536453242777


PRECURSORMZ: 315.091022688
COMPOUNDNAME: casmi2022challengebonus177
FORMULA: C15H14N4O2S
SMILES: C1=CC=C(C=C1)N2C(=CC=N2)NS(=O)(=O)C3=CC=C(C=C3)N
INCHIKEY: QWCJHSGMANYXCW-UHFFFAOYSA-N
PRECURSORTYPE: [M+H]+
PRECURSORINTENSITY: 32385018.41992
IONMODE: positive
CHARGE: 1
PARENTMASS: 314.083746688
NUM PEAKS: 82
52.01845169 0.009926409796058152
53.03888702 0.005737659572705667
54.03417587 0.0037741046634294007
55.01824951 0.0018304709452515886
56.0370903  0.001207115199436447
64.60704041 0.0010444439353576988
65.03548431 0.0010910871485452023
65.03868103 0.09623036700393839
68.04953003 0.037115489176611345
69.03351593 0.0018485886973426738
77.03936005 0.004137722456660241
78.03403473 0.0048922985647585245
78.04639435 0.0016993796775438001
79.01777649 0.007187630306710133
80.04943085 0.02007630883135728
90.27679443 0.0008277820009303739
91.04169464 0.004001796857959072
92.03193665 0.004361408834306896
92.0355835  0.0021122523238320057
92.04464722 0.008215786569309231
92.04943085 0.40241329234862583
92.06333923 0.004957729423211813
93.05722046 0.007046604861775501
94.04212189 0.0010419938024587188
94.06506348 0.0022481390720590815
95.04923248 0.005236067539774077
96.04398346 0.006805060142203356
103.0540771 0.015567050188837991
104.0494003 0.03215868372867481
105.0447083 0.004210211225241263
105.0575943 0.0050056624721391925
106.0529861 0.0013878765762689632
106.0568161 0.001061901673394627
106.0651093 0.0880677642916322
106.07341   0.0022925080894945563
107.7123566 0.0010258125799991202
108.0222549 0.001918574496379928
108.0378342 0.005928531729920129
108.0442734 0.33518808723091
108.0618973 0.0019770937444907807
110.0599899 0.05504336235059111
116.0490036 0.01700267066772618
117.0571594 0.01066234167264073
118.0526047 0.004316784957761374
118.0654831 0.0032963330771789115
119.05233   0.0015107616248362054
119.0602798 0.06540059149194118
120.0554199 0.008040574039189325
128.0497284 0.002093457796482238
130.0650482 0.045112985810126745
131.0484009 0.001783904767004143
131.0511932 0.0022534582569691377
131.0602264 0.18387297301936073
132.0575562 0.0009473400613983593
132.0680389 0.054311897168515644
132.0795135 0.0014029674324228015
132.2661896 0.0010142852003304252
133.0637665 0.014767923909093606
133.0756836 0.09306810358281256
134.0597992 0.0015344912724092846
140.0163574 0.04518195583576852
142.0523224 0.010075528127750347
143.060257  0.02351949270455763
156.0111389 0.030778420069306332
156.0559998 0.004477022073136175
157.0635986 0.0019969940673345795
158.0314178 0.007505828121680615
158.0401611 0.005129245164219773
158.0711365 1.0
158.0950165 0.002849187874662428
158.1023407 0.011222169456223651
159.0788879 0.17315431281146448
160.0708313 0.0023530340200929715
160.074585  0.00326481934861663
160.0866547 0.2396517326640109
160.1184998 0.0015159064266182512
166.0649719 0.0014547606644560265
180.0562134 0.0010671639146097873
180.3783569 0.000904091325133679
222.0326691 0.0015001078258277995
249.072403  0.0009497524538367921
334.430542  0.0009540536453242777


