PRECURSORMZ: 275.127785056
COMPOUNDNAME: casmi2022challengebonus30
FORMULA: C16H18O4
SMILES: COC1=C(C=C(C(=C1)CCC2=CC(=CC=C2)O)O)OC
INCHIKEY: AXCJOIQUPCZRLS-UHFFFAOYSA-N
PRECURSORTYPE: [M+H]+
PRECURSORINTENSITY: 26681703.48828
IONMODE: positive
CHARGE: 1
PARENTMASS: 274.120509056
NUM PEAKS: 89
50.01587296 0.002153739054758672
51.02353287 0.008950338358093297
53.03887558 0.10691735505576903
55.01810455 0.023795329871555426
65.03881073 0.0134551269624878
66.04659271 0.0025641513973555575
67.05451202 0.0018513682950676215
77.03860474 0.05239176958203722
78.04642487 0.03919490894600261
79.05422974 0.21294051829147184
81.03339386 0.011817988703485265
81.06977081 0.020397354103673847
91.04052734 0.002203049437515983
91.05422974 0.4366663693850467
92.06206512 0.0022083477493317644
93.03371429 0.0033060480532736136
93.05453491 0.0025707196565374715
93.06989288 0.42166078186840866
94.04136658 0.006746867885339156
95.04911804 0.2183631347064755
95.0561676  0.0043827447605340785
96.05702209 0.0065017922631302435
102.0464172 0.006397263868310174
103.0374451 0.002478251998786867
103.0542068 0.5313516746051135
105.033165  0.006419177951983717
105.0447464 0.16157312675973848
106.0412979 0.027014941046112302
107.0313644 0.009501027819674714
107.0490799 1.0
107.0653687 0.00501248622211785
107.0725403 0.003485133756674765
109.0284195 0.0032596578242432297
109.065094  0.007794613733444035
110.0364532 0.002272795149374542
111.0442429 0.00277457898030609
111.0802612 0.0027212734835257058
115.0539246 0.002734603757462195
119.0494461 0.015342833868918982
119.0576935 0.0019014840770488384
120.0569153 0.020042678507162397
121.0306549 0.002389627433561236
121.0432968 0.0059762861000128694
121.0647049 0.6317627919662223
121.0918884 0.00222404372955122
122.035675  0.013332528944849448
123.0439224 0.10018237631887776
123.0542603 0.00239177708048738
124.0519638 0.07173823943519388
125.0595627 0.010996352324748106
131.0492554 0.002938748241268625
131.060257  0.0020011865076780835
133.0279388 0.014171921872428633
134.0362244 0.009761025904975577
135.0438232 0.0065827344746308665
136.0528564 0.005438579356467728
137.0596771 0.027023367771529104
138.0308228 0.002417156050186555
138.0674133 0.0062617958830535675
139.0747833 0.0021360877305179153
140.0470123 0.005784952471955052
141.0698547 0.011290991060323672
144.0808563 0.0017972524730742508
146.290329  0.0018659700215335486
147.04422   0.013834279251688217
148.0521545 0.011977354304041192
149.0598602 0.01158788918291668
151.0390167 0.03709611793173541
152.0467377 0.05065892044876961
153.0545197 0.009653293427888038
153.06987   0.0304787586794615
154.0774078 0.007292718383591792
155.0850677 0.030019091645151114
165.0567932 0.0028240591728555774
165.0697479 0.11629641210042216
165.0857544 0.0036213455662910386
166.0625458 0.0431990068785549
167.0365601 0.0047983698943020224
167.0701447 0.42010026353910523
168.0571899 0.0076078579912907465
168.0737915 0.02334700793755937
181.0647583 0.007121283562318413
181.0858002 0.011980875838941927
182.0723877 0.00626327039580187
183.0802307 0.026939030458848927
193.0629425 0.0022547929852408713
193.0798492 0.0018964343908514233
211.0746765 0.016053378245977256
225.781723  0.0017640870197129942


PRECURSORMZ: 275.127785056
COMPOUNDNAME: casmi2022challengebonus30
FORMULA: C16H18O4
SMILES: COC1=C(C=C(C(=C1)CCC2=CC(=CC=C2)O)O)OC
INCHIKEY: AXCJOIQUPCZRLS-UHFFFAOYSA-N
PRECURSORTYPE: [M+H]+
PRECURSORINTENSITY: 26681703.48828
IONMODE: positive
CHARGE: 1
PARENTMASS: 274.120509056
NUM PEAKS: 89
50.01587296 0.002153739054758672
51.02353287 0.008950338358093297
53.03887558 0.10691735505576903
55.01810455 0.023795329871555426
65.03881073 0.0134551269624878
66.04659271 0.0025641513973555575
67.05451202 0.0018513682950676215
77.03860474 0.05239176958203722
78.04642487 0.03919490894600261
79.05422974 0.21294051829147184
81.03339386 0.011817988703485265
81.06977081 0.020397354103673847
91.04052734 0.002203049437515983
91.05422974 0.4366663693850467
92.06206512 0.0022083477493317644
93.03371429 0.0033060480532736136
93.05453491 0.0025707196565374715
93.06989288 0.42166078186840866
94.04136658 0.006746867885339156
95.04911804 0.2183631347064755
95.0561676  0.0043827447605340785
96.05702209 0.0065017922631302435
102.0464172 0.006397263868310174
103.0374451 0.002478251998786867
103.0542068 0.5313516746051135
105.033165  0.006419177951983717
105.0447464 0.16157312675973848
106.0412979 0.027014941046112302
107.0313644 0.009501027819674714
107.0490799 1.0
107.0653687 0.00501248622211785
107.0725403 0.003485133756674765
109.0284195 0.0032596578242432297
109.065094  0.007794613733444035
110.0364532 0.002272795149374542
111.0442429 0.00277457898030609
111.0802612 0.0027212734835257058
115.0539246 0.002734603757462195
119.0494461 0.015342833868918982
119.0576935 0.0019014840770488384
120.0569153 0.020042678507162397
121.0306549 0.002389627433561236
121.0432968 0.0059762861000128694
121.0647049 0.6317627919662223
121.0918884 0.00222404372955122
122.035675  0.013332528944849448
123.0439224 0.10018237631887776
123.0542603 0.00239177708048738
124.0519638 0.07173823943519388
125.0595627 0.010996352324748106
131.0492554 0.002938748241268625
131.060257  0.0020011865076780835
133.0279388 0.014171921872428633
134.0362244 0.009761025904975577
135.0438232 0.0065827344746308665
136.0528564 0.005438579356467728
137.0596771 0.027023367771529104
138.0308228 0.002417156050186555
138.0674133 0.0062617958830535675
139.0747833 0.0021360877305179153
140.0470123 0.005784952471955052
141.0698547 0.011290991060323672
144.0808563 0.0017972524730742508
146.290329  0.0018659700215335486
147.04422   0.013834279251688217
148.0521545 0.011977354304041192
149.0598602 0.01158788918291668
151.0390167 0.03709611793173541
152.0467377 0.05065892044876961
153.0545197 0.009653293427888038
153.06987   0.0304787586794615
154.0774078 0.007292718383591792
155.0850677 0.030019091645151114
165.0567932 0.0028240591728555774
165.0697479 0.11629641210042216
165.0857544 0.0036213455662910386
166.0625458 0.0431990068785549
167.0365601 0.0047983698943020224
167.0701447 0.42010026353910523
168.0571899 0.0076078579912907465
168.0737915 0.02334700793755937
181.0647583 0.007121283562318413
181.0858002 0.011980875838941927
182.0723877 0.00626327039580187
183.0802307 0.026939030458848927
193.0629425 0.0022547929852408713
193.0798492 0.0018964343908514233
211.0746765 0.016053378245977256
225.781723  0.0017640870197129942


