PRECURSORMZ: 437.1605771719999
COMPOUNDNAME: casmi2022challengebonus186
FORMULA: C25H26O7
SMILES: CC(=CCC1=C2C(=C3C(=C1O)C(=O)C(=CO3)C4=CC(=C(C=C4)O)O)CC(C(O2)(C)C)O)C
INCHIKEY: KMIAVXXXWOJFRF-LJQANCHMSA-N
PRECURSORTYPE: [M-H]-
PRECURSORINTENSITY: 15726093.4541
IONMODE: negative
CHARGE: -1
PARENTMASS: 438.16785317199987
NUM PEAKS: 31
50.32062912 0.0035443537446924528
65.70030212 0.0031158792854580476
87.29446411 0.0036006992456919843
91.27307129 0.014283406147698336
91.28009033 0.00720623771771255
96.0368042  0.003025683297996667
102.9464417 0.003439885178622306
109.287262  0.009360921789478041
109.2946548 0.0042085370826661
131.6728973 0.0032053155568741443
149.0234375 0.005810975443948125
166.1171265 0.003326270214788341
180.835083  0.003451051989842243
187.0744171 0.006081788213793176
203.6344757 0.0033824850801408165
215.7761688 0.025563612914249443
263.4589844 0.003855620442718439
304.2822571 0.005132383818489639
310.0471497 0.015802431111637826
311.0546875 0.013189718167923069
323.0555725 0.03613735351558536
342.0376587 0.007330867930049507
364.9659729 0.004335276489966841
364.9900818 0.003755476170231656
365.1022949 1.0
365.2090149 0.005136445255394466
366.1098328 0.015742730620873942
367.1183167 0.020175655988804803
379.1171875 0.09459881716650825
419.1503296 0.11300461379739715
437.1596985 0.8918245523179786


