PRECURSORMZ: 465.10275207999985
COMPOUNDNAME: casmi2022challengebonus21
FORMULA: C21H20O12
SMILES: C1=CC(=C(C(=C1)OC2C(C(C(C(O2)CO)O)O)O)C3=C(C(=O)C4=C(C=C(C=C4O3)O)O)O)O
INCHIKEY: WLCYEFFWFTVKQR-LTONGVQOSA-N
PRECURSORTYPE: [M+H]+
PRECURSORINTENSITY: 8170201.5
IONMODE: positive
CHARGE: 1
PARENTMASS: 464.09547607999986
NUM PEAKS: 33
52.22610092 0.00254581237145627
61.02851486 0.015647986183682048
69.03355408 0.031383454018359146
73.02852631 0.005289686022754072
75.7591095  0.009287341866170562
75.76413727 0.005632143039610844
81.03361511 0.013844129735488136
85.02256012 0.00375171084152856
85.02841949 0.12488442002417914
86.76080322 0.0028998197339641435
87.0442276  0.010252124462589147
91.03891754 0.005361594094725462
97.02861786 0.04322574742933324
97.34383392 0.003012767933938192
99.04385376 0.010930173465998179
109.0283661 0.019291052086722615
127.0390244 0.03637042910761387
145.0490417 0.011899967263193987
149.0235291 0.019889524263754427
153.0172729 0.020675016146985428
165.0185089 0.003221436635307945
207.0282745 0.005420348443019431
216.4491272 0.0067089097469650895
229.0501556 0.005811881472166057
235.0239563 0.005197610499701443
247.0603485 0.010523425033322042
257.0447388 0.0417297373914585
285.0396118 0.0030030453686875325
285.1574097 0.003022723313259992
293.2847595 0.003138999289188765
302.9444885 0.004261585053941837
303.0497131 1.0
303.1320801 0.004536483388975453


