PRECURSORMZ: 921.4970770480002
COMPOUNDNAME: casmi2022challengebonus154
FORMULA: C50H74O14
SMILES: CC1C=CC=C2COC3C2(C(C=C(C3O)C)C(=O)OC4CC(CC=C(C1OC5CC(C(C(O5)C)OC6CC(C(C(O6)C)O)OC)OC)C)OC7(C4)C=CC(C(O7)C8CCCCC8)C)O
INCHIKEY: QLFZZSKTJWDQOS-YDBLARSUSA-N
PRECURSORTYPE: [M+Na]+
PRECURSORINTENSITY: 3584831.5
IONMODE: positive
CHARGE: 1
PARENTMASS: 898.5078590480001
NUM PEAKS: 45
79.83455658 0.02601417581881823
139.0733185 0.13904639828063955
149.1327362 0.04258421178900303
151.0738525 0.051498163682529595
153.0523682 0.13771471514949488
167.0679474 0.1030909801790662
177.1273956 0.030981458994338705
183.0627594 0.49247689916112225
185.079071  0.0297122090443887
193.7567902 0.027292091260330584
217.1195831 0.24762484891242859
240.1119995 0.20245733246795633
257.114563  0.10115648024363105
301.1050415 0.03004102842556235
305.1717224 0.2277203403820949
311.1449585 0.21837153746522303
327.1401978 0.04224550079217531
353.170105  0.050980372469927974
353.2101746 0.416656848860819
360.3072815 0.029074386562515774
361.2113647 0.038318155922056424
377.2076721 0.10885840351478154
385.1993713 0.036911758539296964
395.2055054 0.1061207096761298
449.2504578 0.6476834014604453
455.2362366 0.02882162653405013
481.255127  0.25840670336516663
497.2508545 0.17515023358093593
499.3030701 0.032814944151138566
503.276947  0.028314295382772615
521.2875366 0.18017500247736556
535.3173828 0.05430650672526785
565.4447632 0.028242291162843134
571.3356323 0.035317473337783234
599.3192139 0.0407123168904298
615.3308716 0.04337643997864159
633.3388672 0.26478122667720294
641.3336182 0.2135946901992246
665.3597412 0.15195223015249468
715.4106445 0.09932271416891286
727.3616943 0.03889045843054669
747.4005737 0.036266186027785204
777.4190063 0.7655561899820519
859.4875488 0.11982218702148112
921.4951782 1.0


PRECURSORMZ: 921.4970770480002
COMPOUNDNAME: casmi2022challengebonus154
FORMULA: C50H74O14
SMILES: CC1C=CC=C2COC3C2(C(C=C(C3O)C)C(=O)OC4CC(CC=C(C1OC5CC(C(C(O5)C)OC6CC(C(C(O6)C)O)OC)OC)C)OC7(C4)C=CC(C(O7)C8CCCCC8)C)O
INCHIKEY: QLFZZSKTJWDQOS-YDBLARSUSA-N
PRECURSORTYPE: [M+Na]+
PRECURSORINTENSITY: 3584831.5
IONMODE: positive
CHARGE: 1
PARENTMASS: 898.5078590480001
NUM PEAKS: 45
79.83455658 0.02601417581881823
139.0733185 0.13904639828063955
149.1327362 0.04258421178900303
151.0738525 0.051498163682529595
153.0523682 0.13771471514949488
167.0679474 0.1030909801790662
177.1273956 0.030981458994338705
183.0627594 0.49247689916112225
185.079071  0.0297122090443887
193.7567902 0.027292091260330584
217.1195831 0.24762484891242859
240.1119995 0.20245733246795633
257.114563  0.10115648024363105
301.1050415 0.03004102842556235
305.1717224 0.2277203403820949
311.1449585 0.21837153746522303
327.1401978 0.04224550079217531
353.170105  0.050980372469927974
353.2101746 0.416656848860819
360.3072815 0.029074386562515774
361.2113647 0.038318155922056424
377.2076721 0.10885840351478154
385.1993713 0.036911758539296964
395.2055054 0.1061207096761298
449.2504578 0.6476834014604453
455.2362366 0.02882162653405013
481.255127  0.25840670336516663
497.2508545 0.17515023358093593
499.3030701 0.032814944151138566
503.276947  0.028314295382772615
521.2875366 0.18017500247736556
535.3173828 0.05430650672526785
565.4447632 0.028242291162843134
571.3356323 0.035317473337783234
599.3192139 0.0407123168904298
615.3308716 0.04337643997864159
633.3388672 0.26478122667720294
641.3336182 0.2135946901992246
665.3597412 0.15195223015249468
715.4106445 0.09932271416891286
727.3616943 0.03889045843054669
747.4005737 0.036266186027785204
777.4190063 0.7655561899820519
859.4875488 0.11982218702148112
921.4951782 1.0


