PRECURSORMZ: 345.24001494799995
COMPOUNDNAME: casmi2022challengebonus84
FORMULA: C20H34O3
SMILES: CC(=CCCC(=CCCC(=CCC(C(=CCO)C)O)C)CO)C
INCHIKEY: CCXYKDOOFDMCGS-GLAVUTQJSA-N
PRECURSORTYPE: [M+Na]+
PRECURSORINTENSITY: 29330761.39063
IONMODE: positive
CHARGE: 1
PARENTMASS: 322.25079694799996
NUM PEAKS: 10
60.91424179 0.7059331031194312
81.06957245 0.8642872525625791
89.82264709 0.7817284038700159
91.05465698 1.0
97.42974091 0.7950054340524713
114.2420807 0.7983490743219943
117.1096878 0.833092742480046
120.5845184 0.8265987664186967
136.3363342 0.8184719825808047
221.3576202 0.8718947502809544


PRECURSORMZ: 345.24001494799995
COMPOUNDNAME: casmi2022challengebonus84
FORMULA: C20H34O3
SMILES: CC(=CCCC(=CCCC(=CCC(C(=CCO)C)O)C)CO)C
INCHIKEY: CCXYKDOOFDMCGS-GLAVUTQJSA-N
PRECURSORTYPE: [M+Na]+
PRECURSORINTENSITY: 29330761.39063
IONMODE: positive
CHARGE: 1
PARENTMASS: 322.25079694799996
NUM PEAKS: 10
60.91424179 0.7059331031194312
81.06957245 0.8642872525625791
89.82264709 0.7817284038700159
91.05465698 1.0
97.42974091 0.7950054340524713
114.2420807 0.7983490743219943
117.1096878 0.833092742480046
120.5845184 0.8265987664186967
136.3363342 0.8184719825808047
221.3576202 0.8718947502809544


