PRECURSORMZ: 309.16964986799996
COMPOUNDNAME: casmi2022challengebonus217
FORMULA: C17H24O5
SMILES: CC(=O)OCC1(CC(C(=C)CCC=C(C(=O)C=C1)CO)O)C
INCHIKEY: JQVHJLJCMWESHM-UHFFFAOYSA-N
PRECURSORTYPE: [M+H]+
PRECURSORINTENSITY: 20204146.33594
IONMODE: positive
CHARGE: 1
PARENTMASS: 308.162373868
NUM PEAKS: 90
51.02332687 0.01872220774635971
53.03885651 0.1673276761161066
55.01803589 0.056838198935005094
55.05449295 0.08403980789647357
65.03882599 0.08509595704323487
67.05436707 0.22492712267754889
69.03359222 0.017672925441340886
69.06993866 0.037268459582700295
71.04883575 0.011839411429175054
77.03857422 0.042857280616834754
79.05429077 0.43846168594028007
80.15110779 0.008615659255037648
81.06991577 0.24709851596619342
83.04905701 0.03948666879082873
91.05425262 1.0
91.05968475 0.01918570084110217
93.06995392 0.41223075703743756
95.04911041 0.26930187724724575
95.08529663 0.05537470039101092
97.06485748 0.011683071755461228
103.0541687 0.146436058137981
105.0448151 0.17248564963810692
105.0699081 0.8966870946084818
107.0491486 0.2120568460233187
107.0855103 0.08420695870014976
109.0648346 0.051223304943207384
115.0542526 0.21584590189452507
116.061882  0.05153921175974768
117.0699081 0.30872467424601474
119.0491562 0.05857068652354973
119.0855026 0.2604788254631493
121.0647964 0.1316560755276559
127.0546417 0.012614683389630765
128.0509796 0.019115136954246027
128.0619965 0.8689497186417247
128.0702209 0.016634425736171084
129.0697784 0.7072296221095143
129.0782318 0.009787900109167719
130.0774689 0.07143016096347791
131.0488434 0.04943809013826948
131.085495  0.2840226741366873
132.0930634 0.01062824658428938
133.0645447 0.11491110986593014
133.1008148 0.04327397362630641
135.080246  0.03752783754519598
141.0698242 0.22120237368263626
142.0648804 0.014576923092285445
142.077713  0.4098899182680715
142.0905914 0.008049344522064015
143.085495  0.47752548851828397
144.0567932 0.038801871170331514
144.093277  0.05075218360931273
145.064743  0.2504290073198001
145.1011505 0.11483581176333106
147.0804596 0.054475024652871254
152.0619812 0.06330637513379196
153.0696411 0.12801952737926597
154.0776215 0.095185403514522
155.0611115 0.1110057652512573
155.0851746 0.2820177774562117
156.0933075 0.12489115761621086
157.0649109 0.11399990796185318
157.1010437 0.16619892496249147
158.0723572 0.045632169403598516
159.0802002 0.07496305920877322
159.1169128 0.07669152048502106
161.0958862 0.014099638362264291
165.0697632 0.5233868759879265
166.077652  0.0454343308963671
167.0857239 0.07891731157086691
168.092392  0.016438461300783927
169.0644226 0.01359261277183635
169.1006317 0.045253596192302556
170.0721283 0.012900696887969434
170.1091003 0.07303750477451453
171.080307  0.1763969142513738
171.1163635 0.034646317458455304
172.088028  0.055123121848349665
173.0960083 0.017208476587789272
178.0776062 0.04020393724698782
179.085495  0.13044300362298208
180.0932159 0.147703294463526
183.079895  0.06631155899839215
185.0955963 0.022101893931656225
185.1322327 0.039618274639091206
195.1158295 0.02233874380311665
198.1036987 0.022205353039615613
216.9559937 0.009379777724166524
221.106842  0.011659348074348564
228.4841156 0.011306023122116624


PRECURSORMZ: 309.16964986799996
COMPOUNDNAME: casmi2022challengebonus217
FORMULA: C17H24O5
SMILES: CC(=O)OCC1(CC(C(=C)CCC=C(C(=O)C=C1)CO)O)C
INCHIKEY: JQVHJLJCMWESHM-UHFFFAOYSA-N
PRECURSORTYPE: [M+H]+
PRECURSORINTENSITY: 20204146.33594
IONMODE: positive
CHARGE: 1
PARENTMASS: 308.162373868
NUM PEAKS: 90
51.02332687 0.01872220774635971
53.03885651 0.1673276761161066
55.01803589 0.056838198935005094
55.05449295 0.08403980789647357
65.03882599 0.08509595704323487
67.05436707 0.22492712267754889
69.03359222 0.017672925441340886
69.06993866 0.037268459582700295
71.04883575 0.011839411429175054
77.03857422 0.042857280616834754
79.05429077 0.43846168594028007
80.15110779 0.008615659255037648
81.06991577 0.24709851596619342
83.04905701 0.03948666879082873
91.05425262 1.0
91.05968475 0.01918570084110217
93.06995392 0.41223075703743756
95.04911041 0.26930187724724575
95.08529663 0.05537470039101092
97.06485748 0.011683071755461228
103.0541687 0.146436058137981
105.0448151 0.17248564963810692
105.0699081 0.8966870946084818
107.0491486 0.2120568460233187
107.0855103 0.08420695870014976
109.0648346 0.051223304943207384
115.0542526 0.21584590189452507
116.061882  0.05153921175974768
117.0699081 0.30872467424601474
119.0491562 0.05857068652354973
119.0855026 0.2604788254631493
121.0647964 0.1316560755276559
127.0546417 0.012614683389630765
128.0509796 0.019115136954246027
128.0619965 0.8689497186417247
128.0702209 0.016634425736171084
129.0697784 0.7072296221095143
129.0782318 0.009787900109167719
130.0774689 0.07143016096347791
131.0488434 0.04943809013826948
131.085495  0.2840226741366873
132.0930634 0.01062824658428938
133.0645447 0.11491110986593014
133.1008148 0.04327397362630641
135.080246  0.03752783754519598
141.0698242 0.22120237368263626
142.0648804 0.014576923092285445
142.077713  0.4098899182680715
142.0905914 0.008049344522064015
143.085495  0.47752548851828397
144.0567932 0.038801871170331514
144.093277  0.05075218360931273
145.064743  0.2504290073198001
145.1011505 0.11483581176333106
147.0804596 0.054475024652871254
152.0619812 0.06330637513379196
153.0696411 0.12801952737926597
154.0776215 0.095185403514522
155.0611115 0.1110057652512573
155.0851746 0.2820177774562117
156.0933075 0.12489115761621086
157.0649109 0.11399990796185318
157.1010437 0.16619892496249147
158.0723572 0.045632169403598516
159.0802002 0.07496305920877322
159.1169128 0.07669152048502106
161.0958862 0.014099638362264291
165.0697632 0.5233868759879265
166.077652  0.0454343308963671
167.0857239 0.07891731157086691
168.092392  0.016438461300783927
169.0644226 0.01359261277183635
169.1006317 0.045253596192302556
170.0721283 0.012900696887969434
170.1091003 0.07303750477451453
171.080307  0.1763969142513738
171.1163635 0.034646317458455304
172.088028  0.055123121848349665
173.0960083 0.017208476587789272
178.0776062 0.04020393724698782
179.085495  0.13044300362298208
180.0932159 0.147703294463526
183.079895  0.06631155899839215
185.0955963 0.022101893931656225
185.1322327 0.039618274639091206
195.1158295 0.02233874380311665
198.1036987 0.022205353039615613
216.9559937 0.009379777724166524
221.106842  0.011659348074348564
228.4841156 0.011306023122116624


