PRECURSORMZ: 315.22783344
COMPOUNDNAME: casmi2022challengebonus225
FORMULA: C16H30N2O4
SMILES: CC(C)CCCCCCCCC(=O)NC(CC(=O)O)C(=O)N
INCHIKEY: IQHOCCKALNDTHC-ZDUSSCGKSA-N
PRECURSORTYPE: [M+H]+
PRECURSORINTENSITY: 123113642.6016
IONMODE: positive
CHARGE: 1
PARENTMASS: 314.22055744
NUM PEAKS: 46
53.0025177  0.011263113151910397
53.60737991 0.005710967981187029
55.05448532 0.20996307199827316
57.07012558 1.0
57.07254028 0.0213600644060944
57.07712173 0.012222769083419953
60.04458237 0.006847141094224847
67.05433655 0.34955691562388475
67.05853271 0.007092147488933826
69.06999969 0.0955156592771315
70.02877808 0.29232536376247614
71.01279449 0.010952731700629496
71.04921722 0.007424126299731385
71.08111572 0.007268956159473065
71.08558655 0.30162711076250415
74.02365875 0.9633329616326947
74.03406525 0.009042330837827293
74.05994415 0.013249028607107015
79.05430603 0.007390725282100759
79.20599365 0.006009827382381516
81.06990051 0.16301605609742575
83.08560944 0.11660302171539774
85.06497955 0.006062834329661437
85.10119629 0.08079427191749679
87.05530548 0.8282526985360967
88.03304291 0.010313963176025266
88.0393219  0.4823643680881862
88.04401398 0.00876192170292926
88.07563782 0.06356133619142317
93.07028961 0.007044153082202826
95.07875061 0.012336047971041498
95.08550262 0.3138128138068589
97.10081482 0.013443607402917099
98.02368927 0.09056342895736284
99.00756836 0.13615231027405159
102.0911865 0.035069813627262116
108.0205383 0.009706461376632312
109.1011276 0.21117757660739622
116.0342102 0.2038809973353491
119.0493164 0.010321709043613554
133.0605469 0.13065226505867145
136.0158844 0.011359092907804258
194.8196716 0.005438394877851019
200.200882  0.09667661554342458
216.7514648 0.028908773438483158
254.0569153 0.03534179428330039


