PRECURSORMZ: 1641.717747955999
COMPOUNDNAME: casmi2022challengebonus74
FORMULA: C75H118O39
SMILES: CC1C(C(C(C(O1)OC2C(OC(C(C2O)OC3C(C(C(C(O3)C)OC4C(C(C(CO4)O)OC5C(C(C(CO5)O)O)O)O)O)O)OC(=O)C67CCC(CC6C8=CCC9C1(CCC(C(C1CCC9(C8(CC7)C)C)(C)C=O)OC1C(C(C(C(O1)C(=O)O)O)OC1C(C(C(CO1)O)O)O)OC1C(C(C(C(O1)CO)O)O)O)C)(C)C)C)O)O)O
INCHIKEY: UAEZPQXQAIYKCX-UKLCWAQSSA-N
PRECURSORTYPE: [M-H]-
PRECURSORINTENSITY: 972894.15625
IONMODE: negative
CHARGE: -1
PARENTMASS: 1642.725023955999
NUM PEAKS: 31
113.0234528 0.1284845354265665
121.2353287 0.01830987721392974
131.0335999 0.027099633898682578
139.0020752 0.023025544755326446
143.0344391 0.018202947063054056
157.0138855 0.02301161467681897
182.4116974 0.023008064462426134
289.5719299 0.020279180636192
304.2431641 0.020574127985108645
337.1146851 0.0779338349953418
469.1581726 0.15227284725429227
469.3296204 0.3096114292352814
469.3878479 0.0178132032232577
537.3624268 0.040035943212936805
547.3444824 0.039223648643986586
551.3430176 0.08303720299748814
563.3391113 0.027045653590859333
565.3536377 0.16835878843738897
583.3634033 0.03998544793195399
607.7016602 0.02155984776921376
697.3937378 0.038461736531409246
745.4178467 0.06447628601201087
759.3964844 0.09780014274669939
763.4345093 0.022743678793129288
807.4248047 0.032483200566012484
939.4592285 0.7088237710481581
1479.662476 0.021220882525531858
1509.675903 0.09285746206124565
1641.718994 1.0
1642.21228  0.04052288670780476
1642.691895 0.03160674890942228


