PRECURSORMZ: 807.1414174240001
COMPOUNDNAME: casmi2022challengebonus234
FORMULA: C38H32O20
SMILES: C1=CC(=C(C=C1C=CC(=O)OCC2C(C(C(C(O2)OC(=O)C=CC3=CC(=C(C=C3)O)O)O)OC(=O)C4=CC(=C(C(=C4)O)O)O)OC(=O)C5=CC(=C(C(=C5)O)O)O)O)O
INCHIKEY: RMIQRQLTVMQCLC-OOWHBKENSA-N
PRECURSORTYPE: [M-H]-
PRECURSORINTENSITY: 2682455.875
IONMODE: negative
CHARGE: -1
PARENTMASS: 808.1486934240002
NUM PEAKS: 18
70.84441376 0.01444790191851487
70.96242523 0.017127437207407947
75.17723846 0.0158607112248861
125.0231934 0.1958729448341504
135.043808  0.07561390126274982
151.2039032 0.0166815802541601
161.0232239 0.28377236397728683
169.0131836 1.0
179.0342407 0.2989328269209024
216.0324097 0.04364244331677942
216.0561829 0.05355413005587541
233.0453339 0.057770040074110206
251.0551453 0.017888452144354507
305.0701294 0.018253843424072966
322.0817566 0.018649496813941735
323.0749512 0.02287640333488614
331.2949219 0.015706548627779413
826.9291992 0.01898952157711463


