PRECURSORMZ: 394.1707769679999
COMPOUNDNAME: casmi2022challengebonus48
FORMULA: C16H24O10
SMILES: CCC1=C(C(COC1=O)C(=O)O)CCOC2C(C(C(C(O2)CO)O)O)O
INCHIKEY: GGUPBNDFNVHEBP-PANSSLBXSA-N
PRECURSORTYPE: [M+NH4]+
PRECURSORINTENSITY: 2594049.9375
IONMODE: positive
CHARGE: 1
PARENTMASS: 376.13695396799994
NUM PEAKS: 28
51.67189026 0.01098665633440589
54.91366196 0.012493502115571369
66.14157104 0.011084040874729358
85.02842712 0.016251560605327644
100.4792557 0.011368747797511085
105.0707169 0.012131066586641459
106.8860855 0.01217041662424544
107.085495  0.07213543644901084
113.059906  0.017476095507804927
123.0801086 0.014322927337640578
125.096138  0.05434289074362019
151.0751038 0.13334127713474378
159.5134888 0.012893055396421362
161.060318  0.016812492257797913
167.0705872 0.06368958048533245
169.0859833 0.27235441665639626
179.0567627 0.015314613788621445
179.0700989 0.7591828426812904
179.1285706 0.014894282890056475
185.0808258 0.04881166358607138
197.0807037 0.5324694953297776
215.0676727 0.0260815654385895
215.0914917 1.0
215.1165009 0.01140834285709545
216.0972443 0.06170481378999271
219.9587555 0.012902563234287656
238.3945312 0.015497788035134168
417.7347717 0.013003251261919714


PRECURSORMZ: 394.1707769679999
COMPOUNDNAME: casmi2022challengebonus48
FORMULA: C16H24O10
SMILES: CCC1=C(C(COC1=O)C(=O)O)CCOC2C(C(C(C(O2)CO)O)O)O
INCHIKEY: GGUPBNDFNVHEBP-PANSSLBXSA-N
PRECURSORTYPE: [M+NH4]+
PRECURSORINTENSITY: 2594049.9375
IONMODE: positive
CHARGE: 1
PARENTMASS: 376.13695396799994
NUM PEAKS: 28
51.67189026 0.01098665633440589
54.91366196 0.012493502115571369
66.14157104 0.011084040874729358
85.02842712 0.016251560605327644
100.4792557 0.011368747797511085
105.0707169 0.012131066586641459
106.8860855 0.01217041662424544
107.085495  0.07213543644901084
113.059906  0.017476095507804927
123.0801086 0.014322927337640578
125.096138  0.05434289074362019
151.0751038 0.13334127713474378
159.5134888 0.012893055396421362
161.060318  0.016812492257797913
167.0705872 0.06368958048533245
169.0859833 0.27235441665639626
179.0567627 0.015314613788621445
179.0700989 0.7591828426812904
179.1285706 0.014894282890056475
185.0808258 0.04881166358607138
197.0807037 0.5324694953297776
215.0676727 0.0260815654385895
215.0914917 1.0
215.1165009 0.01140834285709545
216.0972443 0.06170481378999271
219.9587555 0.012902563234287656
238.3945312 0.015497788035134168
417.7347717 0.013003251261919714


