PRECURSORMZ: 903.2553491120003
COMPOUNDNAME: casmi2022challengebonus81
FORMULA: C42H46O22
SMILES: CC1C(C(C(C(O1)OC2C(C(C(OC2OC3=C(OC4=CC(=CC(=C4C3=O)O)OC5C(C(C(C(O5)COC(=O)C=CC6=CC=C(C=C6)O)O)O)O)C7=CC=C(C=C7)O)CO)O)O)O)O)O
INCHIKEY: NYZUREUOQAHPFZ-QWCCAIKUSA-N
PRECURSORTYPE: [M+H]+
PRECURSORINTENSITY: 1024849.236328
IONMODE: positive
CHARGE: 1
PARENTMASS: 902.2480731120003
NUM PEAKS: 18
65.5062027  0.009927299755904201
71.04923248 0.05226977459431435
81.03377533 0.013075650126886844
85.02854156 0.06777628758920468
91.05393219 0.02169388334238214
109.0293045 0.011014243897207362
115.2516174 0.010367274027942715
119.0493469 0.11327821747018045
126.917038  0.011726623714737386
144.8943024 0.011177190143077099
147.0438995 0.6450597614695108
148.7531891 0.01109866083714908
188.821228  0.01283751017684419
217.3304596 0.040578202217080486
286.954071  0.011996540956357854
287.0548706 1.0
524.8989868 0.010727735549159336
914.0218506 0.009994535377644156


PRECURSORMZ: 903.2553491120003
COMPOUNDNAME: casmi2022challengebonus81
FORMULA: C42H46O22
SMILES: CC1C(C(C(C(O1)OC2C(C(C(OC2OC3=C(OC4=CC(=CC(=C4C3=O)O)OC5C(C(C(C(O5)COC(=O)C=CC6=CC=C(C=C6)O)O)O)O)C7=CC=C(C=C7)O)CO)O)O)O)O)O
INCHIKEY: NYZUREUOQAHPFZ-QWCCAIKUSA-N
PRECURSORTYPE: [M+H]+
PRECURSORINTENSITY: 1024849.236328
IONMODE: positive
CHARGE: 1
PARENTMASS: 902.2480731120003
NUM PEAKS: 18
65.5062027  0.009927299755904201
71.04923248 0.05226977459431435
81.03377533 0.013075650126886844
85.02854156 0.06777628758920468
91.05393219 0.02169388334238214
109.0293045 0.011014243897207362
115.2516174 0.010367274027942715
119.0493469 0.11327821747018045
126.917038  0.011726623714737386
144.8943024 0.011177190143077099
147.0438995 0.6450597614695108
148.7531891 0.01109866083714908
188.821228  0.01283751017684419
217.3304596 0.040578202217080486
286.954071  0.011996540956357854
287.0548706 1.0
524.8989868 0.010727735549159336
914.0218506 0.009994535377644156


