PRECURSORMZ: 277.13353913199995
COMPOUNDNAME: casmi2022challengebonus40
FORMULA: C18H16N2O
SMILES: CC1=CC(=C(C=C1)N=NC2=C(C=CC3=CC=CC=C32)O)C
INCHIKEY: JBTHDAVBDKKSRW-FMQUCBEESA-N
PRECURSORTYPE: [M+H]+
PRECURSORINTENSITY: 99696471.45703
IONMODE: positive
CHARGE: 1
PARENTMASS: 276.12626313199996
NUM PEAKS: 36
54.03511047 0.000966091723897063
61.40379715 0.0008239229085166985
66.67089844 0.0008251402893029953
91.05406189 0.0017853185168478967
93.06994629 0.0018284741130442518
98.23466492 0.0008250110959527591
106.0650864 0.05373299444236799
106.0732117 0.001768762012723824
108.080658  0.005539761313102949
120.0703049 0.0016683383282743726
120.0807419 0.24315007324334773
120.1016464 0.0015508330565334448
121.0610657 0.004808551096125552
121.0885239 1.0
121.105217  0.004091185263645547
121.1097717 0.010772662079003273
122.0963821 0.00971051651029806
128.0493622 0.13935821279167293
146.0601044 0.02061116592588454
156.04422   0.24208309170413925
158.0600128 0.0015500908219217725
170.2575684 0.0009760360057401784
174.0547943 0.027266853616217702
182.0603485 0.0013808776364173407
193.6008453 0.0008262454098480675
216.2465668 0.005922134119214225
218.0993805 0.0010260993696849605
239.9880524 0.0009369367514863407
244.0982208 0.001346597027587632
245.1081848 0.0011544141581030791
259.1228943 0.03151621606835746
260.105957  0.008657070169559473
260.1315308 0.07749499301763878
261.1023254 0.0011894928964830027
262.1095276 0.012922553568630398
277.1333008 0.0021338019003052395


PRECURSORMZ: 277.13353913199995
COMPOUNDNAME: casmi2022challengebonus40
FORMULA: C18H16N2O
SMILES: CC1=CC(=C(C=C1)N=NC2=C(C=CC3=CC=CC=C32)O)C
INCHIKEY: JBTHDAVBDKKSRW-FMQUCBEESA-N
PRECURSORTYPE: [M+H]+
PRECURSORINTENSITY: 99696471.45703
IONMODE: positive
CHARGE: 1
PARENTMASS: 276.12626313199996
NUM PEAKS: 36
54.03511047 0.000966091723897063
61.40379715 0.0008239229085166985
66.67089844 0.0008251402893029953
91.05406189 0.0017853185168478967
93.06994629 0.0018284741130442518
98.23466492 0.0008250110959527591
106.0650864 0.05373299444236799
106.0732117 0.001768762012723824
108.080658  0.005539761313102949
120.0703049 0.0016683383282743726
120.0807419 0.24315007324334773
120.1016464 0.0015508330565334448
121.0610657 0.004808551096125552
121.0885239 1.0
121.105217  0.004091185263645547
121.1097717 0.010772662079003273
122.0963821 0.00971051651029806
128.0493622 0.13935821279167293
146.0601044 0.02061116592588454
156.04422   0.24208309170413925
158.0600128 0.0015500908219217725
170.2575684 0.0009760360057401784
174.0547943 0.027266853616217702
182.0603485 0.0013808776364173407
193.6008453 0.0008262454098480675
216.2465668 0.005922134119214225
218.0993805 0.0010260993696849605
239.9880524 0.0009369367514863407
244.0982208 0.001346597027587632
245.1081848 0.0011544141581030791
259.1228943 0.03151621606835746
260.105957  0.008657070169559473
260.1315308 0.07749499301763878
261.1023254 0.0011894928964830027
262.1095276 0.012922553568630398
277.1333008 0.0021338019003052395


