PRECURSORMZ: 346.07796644
COMPOUNDNAME: casmi2022challengebonus125
FORMULA: C12H15NO8
SMILES: C1=CC(=CC=C1[N+](=O)[O-])OC2C(C(C(C(O2)CO)O)O)O
INCHIKEY: IFBHRQDFSNCLOZ-IIRVCBMXSA-N
PRECURSORTYPE: [M+FA-H]-
PRECURSORINTENSITY: 12250677.98242
IONMODE: negative
CHARGE: -1
PARENTMASS: 301.07976544
NUM PEAKS: 49
59.0124588  0.10553451812412042
68.99350739 0.0018950514136176976
68.99677277 0.09763050596806391
71.0124588  0.013632466306693049
72.99162292 0.002604012497047595
78.03372955 0.011375429436958925
78.03796387 0.0015960727951983035
87.00722504 0.011375160456421425
89.02290344 0.008915241309853042
92.02529907 0.03737408322113809
95.01217651 0.0014667262497386712
101.0227432 0.010437355576512975
106.0284882 0.002461588890908976
108.020195  0.041676530698346335
121.028038  0.2567610439596375
121.0500183 0.001938241586754724
122.0232849 0.15118734363123557
122.0312576 0.0020005806061389846
123.0309753 0.008689666712358058
124.0387115 0.017305576631580874
130.0410156 0.00989432623043982
135.0178833 0.00147022193774768
135.0312195 0.0019116752580180057
137.9834442 0.0030443135163440473
137.9933929 0.0030598180204760963
138.018219  1.0
138.0447845 0.011867527212358567
140.033432  0.0018797564548551809
145.0274048 0.0021505458599956014
148.0393524 0.011843659955058648
150.0182343 0.0018940566356947933
150.2421112 0.0015681642112203194
151.0261078 0.5399927887800466
151.0547943 0.004860160619080522
152.0339508 0.09201770815365998
152.0453644 0.0018081853933317497
160.0390625 0.30949400482623096
160.0713196 0.002007479056794118
162.0179443 0.0028085406912062767
164.033371  0.001899602770813021
166.0131226 0.02506421433792495
174.0311127 0.006692001209268722
175.0260162 0.006033144501936151
176.0341797 0.012541370053850327
180.0290833 0.022104333441659775
194.6228943 0.0016661304440813744
203.0209961 0.013893736421777748
204.0291901 0.07044018686141479
205.5755463 0.0016494340596542206


PRECURSORMZ: 346.07796644
COMPOUNDNAME: casmi2022challengebonus125
FORMULA: C12H15NO8
SMILES: C1=CC(=CC=C1[N+](=O)[O-])OC2C(C(C(C(O2)CO)O)O)O
INCHIKEY: IFBHRQDFSNCLOZ-IIRVCBMXSA-N
PRECURSORTYPE: [M+FA-H]-
PRECURSORINTENSITY: 12250677.98242
IONMODE: negative
CHARGE: -1
PARENTMASS: 301.07976544
NUM PEAKS: 49
59.0124588  0.10553451812412042
68.99350739 0.0018950514136176976
68.99677277 0.09763050596806391
71.0124588  0.013632466306693049
72.99162292 0.002604012497047595
78.03372955 0.011375429436958925
78.03796387 0.0015960727951983035
87.00722504 0.011375160456421425
89.02290344 0.008915241309853042
92.02529907 0.03737408322113809
95.01217651 0.0014667262497386712
101.0227432 0.010437355576512975
106.0284882 0.002461588890908976
108.020195  0.041676530698346335
121.028038  0.2567610439596375
121.0500183 0.001938241586754724
122.0232849 0.15118734363123557
122.0312576 0.0020005806061389846
123.0309753 0.008689666712358058
124.0387115 0.017305576631580874
130.0410156 0.00989432623043982
135.0178833 0.00147022193774768
135.0312195 0.0019116752580180057
137.9834442 0.0030443135163440473
137.9933929 0.0030598180204760963
138.018219  1.0
138.0447845 0.011867527212358567
140.033432  0.0018797564548551809
145.0274048 0.0021505458599956014
148.0393524 0.011843659955058648
150.0182343 0.0018940566356947933
150.2421112 0.0015681642112203194
151.0261078 0.5399927887800466
151.0547943 0.004860160619080522
152.0339508 0.09201770815365998
152.0453644 0.0018081853933317497
160.0390625 0.30949400482623096
160.0713196 0.002007479056794118
162.0179443 0.0028085406912062767
164.033371  0.001899602770813021
166.0131226 0.02506421433792495
174.0311127 0.006692001209268722
175.0260162 0.006033144501936151
176.0341797 0.012541370053850327
180.0290833 0.022104333441659775
194.6228943 0.0016661304440813744
203.0209961 0.013893736421777748
204.0291901 0.07044018686141479
205.5755463 0.0016494340596542206


