PRECURSORMZ: 500.2642785239999
COMPOUNDNAME: casmi2022challengebonus107
FORMULA: C28H37NO7
SMILES: CCC(C)C=CC=CC(=O)OC1C=CC2=CC3(C(CC2(C1C)C)(C(=C)C(=O)N3CCCC(=O)O)O)O
INCHIKEY: REIKGNZFNCYMMZ-RWYVSWDTSA-N
PRECURSORTYPE: [M+H]+
PRECURSORINTENSITY: 35400926.36328
IONMODE: positive
CHARGE: 1
PARENTMASS: 499.2570025239999
NUM PEAKS: 65
53.03891373 0.024594039145408267
55.01820374 0.003065293368277346
55.04494476 0.0018730691380297291
55.0544014  0.009730197538769251
63.59389877 0.0018813469824749045
65.03869629 0.007729051531843465
65.85665131 0.004915304687530348
67.04338837 0.003284419107589662
67.05006409 0.004518764629244288
67.05434418 0.3821473907017678
67.06305695 0.0029429066428153065
69.03362274 0.025343570081606526
69.07011414 0.0032810757331401745
79.05432892 0.010391721013108753
81.03354645 0.10400341153005656
81.06990051 0.0956114209428409
81.07537079 0.0031843515562516504
86.06002808 0.10705264995690267
87.04408264 0.05682154944064115
91.054245   0.004358852192676381
93.06994629 0.008456040402287762
95.04906464 0.046388235702887845
95.08547974 0.032668189640326147
97.02868652 0.0023389972827857837
98.06016541 0.004643735346477082
104.0705338 0.013870490157105621
107.0855255 0.026464815467041658
109.0778351 0.008305454682199833
109.1011429 1.0
109.1190872 0.013485570811908761
119.0851288 0.01800855385914231
123.7362442 0.0019647910669836834
130.0496826 0.0034860321739785716
137.0962677 0.04612139699220795
141.0693817 0.0030083649576429367
154.0778046 0.00758408767144514
155.0859833 0.002092568330413454
156.0935822 0.0026069007140732954
157.0647278 0.011200879000962083
157.101532  0.0044813737996089
159.0434113 0.0025013252778882354
159.1178589 0.0027271896954657294
165.0705566 0.0024006536261642255
166.0501099 0.0031965539456822608
167.0854187 0.010832044945527308
169.1009979 0.10352439887105289
171.0801392 0.008843826653139673
171.1164551 0.003949399256813923
179.085022  0.008757300864234138
182.0722351 0.042732238376346494
197.0959015 0.3050119580516469
199.1118622 0.008202476051525154
210.0673676 0.0029799292460363537
211.0744934 0.0032677743969287943
215.1067505 0.003595640903334693
221.0702667 0.0027689537195777886
221.0944214 0.0033572581364819548
224.1071014 0.008604622458131712
225.090744  0.1011010860008572
236.1087189 0.003721972911808271
249.1226959 0.0022763021834828253
264.1386719 0.009022273489769942
268.7462769 0.002074196968328553
282.1503601 0.00350726656387623
442.6166077 0.0018893771508199282


PRECURSORMZ: 500.2642785239999
COMPOUNDNAME: casmi2022challengebonus107
FORMULA: C28H37NO7
SMILES: CCC(C)C=CC=CC(=O)OC1C=CC2=CC3(C(CC2(C1C)C)(C(=C)C(=O)N3CCCC(=O)O)O)O
INCHIKEY: REIKGNZFNCYMMZ-RWYVSWDTSA-N
PRECURSORTYPE: [M+H]+
PRECURSORINTENSITY: 35400926.36328
IONMODE: positive
CHARGE: 1
PARENTMASS: 499.2570025239999
NUM PEAKS: 65
53.03891373 0.024594039145408267
55.01820374 0.003065293368277346
55.04494476 0.0018730691380297291
55.0544014  0.009730197538769251
63.59389877 0.0018813469824749045
65.03869629 0.007729051531843465
65.85665131 0.004915304687530348
67.04338837 0.003284419107589662
67.05006409 0.004518764629244288
67.05434418 0.3821473907017678
67.06305695 0.0029429066428153065
69.03362274 0.025343570081606526
69.07011414 0.0032810757331401745
79.05432892 0.010391721013108753
81.03354645 0.10400341153005656
81.06990051 0.0956114209428409
81.07537079 0.0031843515562516504
86.06002808 0.10705264995690267
87.04408264 0.05682154944064115
91.054245   0.004358852192676381
93.06994629 0.008456040402287762
95.04906464 0.046388235702887845
95.08547974 0.032668189640326147
97.02868652 0.0023389972827857837
98.06016541 0.004643735346477082
104.0705338 0.013870490157105621
107.0855255 0.026464815467041658
109.0778351 0.008305454682199833
109.1011429 1.0
109.1190872 0.013485570811908761
119.0851288 0.01800855385914231
123.7362442 0.0019647910669836834
130.0496826 0.0034860321739785716
137.0962677 0.04612139699220795
141.0693817 0.0030083649576429367
154.0778046 0.00758408767144514
155.0859833 0.002092568330413454
156.0935822 0.0026069007140732954
157.0647278 0.011200879000962083
157.101532  0.0044813737996089
159.0434113 0.0025013252778882354
159.1178589 0.0027271896954657294
165.0705566 0.0024006536261642255
166.0501099 0.0031965539456822608
167.0854187 0.010832044945527308
169.1009979 0.10352439887105289
171.0801392 0.008843826653139673
171.1164551 0.003949399256813923
179.085022  0.008757300864234138
182.0722351 0.042732238376346494
197.0959015 0.3050119580516469
199.1118622 0.008202476051525154
210.0673676 0.0029799292460363537
211.0744934 0.0032677743969287943
215.1067505 0.003595640903334693
221.0702667 0.0027689537195777886
221.0944214 0.0033572581364819548
224.1071014 0.008604622458131712
225.090744  0.1011010860008572
236.1087189 0.003721972911808271
249.1226959 0.0022763021834828253
264.1386719 0.009022273489769942
268.7462769 0.002074196968328553
282.1503601 0.00350726656387623
442.6166077 0.0018893771508199282


