PRECURSORMZ: 352.238338548
COMPOUNDNAME: casmi2022challengebonus64
FORMULA: C22H29N3O
SMILES: CCC(C)(C)C1=CC(=C(C(=C1)N2N=C3C=CC=CC3=N2)O)C(C)(C)CC
INCHIKEY: ZMWRRFHBXARRRT-UHFFFAOYSA-N
PRECURSORTYPE: [M+H]+
PRECURSORINTENSITY: 4983269.28418
IONMODE: positive
CHARGE: 1
PARENTMASS: 351.231062548
NUM PEAKS: 40
55.05437088 0.0361266207561368
65.03865051 0.11544259752604785
69.76708984 0.014491543069722805
71.08552551 1.0
72.23421478 0.017423518299846678
80.04953003 0.05922340926619212
91.05404663 0.02886505774152459
92.04947662 0.2691133755607226
94.57405853 0.017963303628761848
105.0698547 0.0858751779067264
106.0523758 0.0193751093481194
107.0603027 0.26008092202646144
107.0854111 0.06535948255976112
108.0681686 0.024411197736017035
111.0436554 0.029323007405680977
120.0553207 0.10681871482603006
121.064415  0.06385939269029067
129.0699005 0.03559759481437042
133.0638733 0.017983784473050272
133.07547   0.02953809444184647
135.0805817 0.026269906230641717
135.5274048 0.017305257626508468
156.0804291 0.025796996730185696
166.0653229 0.02973585990425497
180.0804291 0.02823987627432466
183.0678711 0.030133414711377954
184.0755615 0.07367057636113784
196.0747986 0.017075964430921627
198.0890808 0.01641633310833946
212.0816345 0.47326214326784105
216.2428741 0.08158810789367896
224.0823212 0.16754205802854555
224.1054688 0.028112683555404992
225.0872955 0.01642919596867058
238.0969849 0.03554161806317135
252.1130066 0.13997814544965767
266.1287537 0.030985917469575103
282.1600037 0.19389196608516424
294.1600952 0.08449540345466769
304.2476196 0.02612299121722159


PRECURSORMZ: 352.238338548
COMPOUNDNAME: casmi2022challengebonus64
FORMULA: C22H29N3O
SMILES: CCC(C)(C)C1=CC(=C(C(=C1)N2N=C3C=CC=CC3=N2)O)C(C)(C)CC
INCHIKEY: ZMWRRFHBXARRRT-UHFFFAOYSA-N
PRECURSORTYPE: [M+H]+
PRECURSORINTENSITY: 4983269.28418
IONMODE: positive
CHARGE: 1
PARENTMASS: 351.231062548
NUM PEAKS: 40
55.05437088 0.0361266207561368
65.03865051 0.11544259752604785
69.76708984 0.014491543069722805
71.08552551 1.0
72.23421478 0.017423518299846678
80.04953003 0.05922340926619212
91.05404663 0.02886505774152459
92.04947662 0.2691133755607226
94.57405853 0.017963303628761848
105.0698547 0.0858751779067264
106.0523758 0.0193751093481194
107.0603027 0.26008092202646144
107.0854111 0.06535948255976112
108.0681686 0.024411197736017035
111.0436554 0.029323007405680977
120.0553207 0.10681871482603006
121.064415  0.06385939269029067
129.0699005 0.03559759481437042
133.0638733 0.017983784473050272
133.07547   0.02953809444184647
135.0805817 0.026269906230641717
135.5274048 0.017305257626508468
156.0804291 0.025796996730185696
166.0653229 0.02973585990425497
180.0804291 0.02823987627432466
183.0678711 0.030133414711377954
184.0755615 0.07367057636113784
196.0747986 0.017075964430921627
198.0890808 0.01641633310833946
212.0816345 0.47326214326784105
216.2428741 0.08158810789367896
224.0823212 0.16754205802854555
224.1054688 0.028112683555404992
225.0872955 0.01642919596867058
238.0969849 0.03554161806317135
252.1130066 0.13997814544965767
266.1287537 0.030985917469575103
282.1600037 0.19389196608516424
294.1600952 0.08449540345466769
304.2476196 0.02612299121722159


