PRECURSORMZ: 227.11788906799998
COMPOUNDNAME: casmi2022challengebonus34
FORMULA: C14H14N2O
SMILES: CCC1=NC=CC2=C1NC3=C2C=CC(=C3)OC
INCHIKEY: QQQXZACTFUGYLB-UHFFFAOYSA-N
PRECURSORTYPE: [M+H]+
PRECURSORINTENSITY: 117604906.2187
IONMODE: positive
CHARGE: 1
PARENTMASS: 226.110613068
NUM PEAKS: 25
53.02134323 0.0014081509735754856
53.02440643 0.002394316339706921
54.85165024 0.00045502720292676664
56.77691269 0.008846278388039842
56.78046799 0.008118233941275756
57.43738556 0.0004959035737231435
64.65463257 0.00042356470550338713
66.63214111 0.0004733012263155726
101.880127  0.0005317338887192934
183.0934753 0.0005956465275166058
184.0993652 0.015196173634401558
198.079361  0.0008035447994070145
199.1220856 0.0008479373169115449
205.9115448 0.0004940147309402462
212.0943298 0.2379465711143435
212.1436157 0.002443891496298449
216.276123  0.0034497731293908858
225.102478  0.0006499583341852641
226.0584412 0.000515441221339892
227.0469055 0.00345589900336771
227.0658112 0.004533460792879148
227.1177826 1.0
227.1726074 0.009458947145833492
227.2012939 0.0012657673888731096
228.0569916 0.0007810255410130636


PRECURSORMZ: 227.11788906799998
COMPOUNDNAME: casmi2022challengebonus34
FORMULA: C14H14N2O
SMILES: CCC1=NC=CC2=C1NC3=C2C=CC(=C3)OC
INCHIKEY: QQQXZACTFUGYLB-UHFFFAOYSA-N
PRECURSORTYPE: [M+H]+
PRECURSORINTENSITY: 117604906.2187
IONMODE: positive
CHARGE: 1
PARENTMASS: 226.110613068
NUM PEAKS: 25
53.02134323 0.0014081509735754856
53.02440643 0.002394316339706921
54.85165024 0.00045502720292676664
56.77691269 0.008846278388039842
56.78046799 0.008118233941275756
57.43738556 0.0004959035737231435
64.65463257 0.00042356470550338713
66.63214111 0.0004733012263155726
101.880127  0.0005317338887192934
183.0934753 0.0005956465275166058
184.0993652 0.015196173634401558
198.079361  0.0008035447994070145
199.1220856 0.0008479373169115449
205.9115448 0.0004940147309402462
212.0943298 0.2379465711143435
212.1436157 0.002443891496298449
216.276123  0.0034497731293908858
225.102478  0.0006499583341852641
226.0584412 0.000515441221339892
227.0469055 0.00345589900336771
227.0658112 0.004533460792879148
227.1177826 1.0
227.1726074 0.009458947145833492
227.2012939 0.0012657673888731096
228.0569916 0.0007810255410130636


