PRECURSORMZ: 285.130858424
COMPOUNDNAME: casmi2022challengebonus193
FORMULA: C12H22O6
SMILES: CCCC=CCOC1C(C(C(C(O1)CO)O)O)O
INCHIKEY: GZDNGWOBFHUEOM-OSUNSFLBSA-N
PRECURSORTYPE: [M+Na]+
PRECURSORINTENSITY: 6173586.033203
IONMODE: positive
CHARGE: 1
PARENTMASS: 262.141640424
NUM PEAKS: 8
60.65112305 0.6612908604790659
79.53141022 0.6557537992812658
87.52339172 0.6521401374707332
104.5511932 0.6752031280621602
127.1307144 0.7021613483478896
131.3107758 0.648184505168538
221.0617676 1.0
227.0847015 0.7777514417915865


PRECURSORMZ: 285.130858424
COMPOUNDNAME: casmi2022challengebonus193
FORMULA: C12H22O6
SMILES: CCCC=CCOC1C(C(C(C(O1)CO)O)O)O
INCHIKEY: GZDNGWOBFHUEOM-OSUNSFLBSA-N
PRECURSORTYPE: [M+Na]+
PRECURSORINTENSITY: 6173586.033203
IONMODE: positive
CHARGE: 1
PARENTMASS: 262.141640424
NUM PEAKS: 8
60.65112305 0.6612908604790659
79.53141022 0.6557537992812658
87.52339172 0.6521401374707332
104.5511932 0.6752031280621602
127.1307144 0.7021613483478896
131.3107758 0.648184505168538
221.0617676 1.0
227.0847015 0.7777514417915865


