PRECURSORMZ: 999.4806301480003
COMPOUNDNAME: casmi2022challengebonus53
FORMULA: C48H74O19
SMILES: CC1C(C(C(C(O1)OC2C(OC(C(C2O)O)OCC3C(C(C(C(O3)OC(=O)C45CCC(C4C6CC7C8C(C6(CC5)C)(CCC(C8(C(CC(=O)O7)O)C)C(=C)C)C)C(=C)C)O)O)O)CO)O)O)O
INCHIKEY: JVLBOZIUMGNKQW-PFEIDDDNSA-N
PRECURSORTYPE: [M+FA-H]-
PRECURSORINTENSITY: 29303404.25391
IONMODE: negative
CHARGE: -1
PARENTMASS: 954.4824291480003
NUM PEAKS: 35
71.01248169 0.009110265084343993
73.02816772 0.011401458520251912
73.92080688 0.0009389940428714304
83.01236725 0.0016243087773409083
85.02832031 0.0013807914037889093
87.00736237 0.007779046238742979
89.02268982 0.004718600825346874
97.02786255 0.0051681683672105795
101.0230789 0.041626519711055035
111.7569351 0.001062307796098957
113.0227203 0.00527453859854496
115.038353  0.0043023853921943505
120.8237381 0.01089925739646635
120.8347778 0.007040726398322896
125.0230255 0.006186327134757677
131.0335846 0.0022811305207113015
143.0336609 0.0057061791186871534
161.04422   0.009334248684898119
163.059494  0.004766899521451318
205.0703888 0.006028692425609825
221.0652618 0.008255668468313652
247.0808563 0.0015401057838884723
261.9622803 0.0010151913832078404
325.1487732 0.0010350116835956308
356.0818787 0.0010768607088242762
367.1251831 0.004422603722374831
395.2940063 0.003855645347945785
413.3066406 0.00991790005577373
423.2886963 0.0170344244533225
439.3263855 0.003288750391884301
441.2990417 0.015673428738100022
483.092804  0.0021953474483284176
483.3109436 1.0
483.4810486 0.009086007673225023
1003.97644  0.0015093745479666971


