PRECURSORMZ: 399.12967096799986
COMPOUNDNAME: casmi2022challengebonus223
FORMULA: C18H24O10
SMILES: CC(C)CC(=O)OCC1C(C(C(C(O1)OC2=C(C=CC(=C2)C(=O)O)O)O)O)O
INCHIKEY: ZRFSFKIFDYASQA-LACBEWGXSA-N
PRECURSORTYPE: [M-H]-
PRECURSORINTENSITY: 24966283.63477
IONMODE: negative
CHARGE: -1
PARENTMASS: 400.13694696799985
NUM PEAKS: 61
59.01272583 0.0013425688779333906
60.12080383 0.001211036618430111
71.01251221 0.014202980408241073
73.02816772 0.004990852553383358
79.01789093 0.0014198257910831348
79.36701202 0.0012771183047641888
81.03340149 0.0022886414646631262
85.02814484 0.012712789405753027
93.03302002 0.00516803803258659
95.01255035 0.011106302274651066
99.00743866 0.0022660143745413313
101.0230942 0.006567253054745906
101.0593414 0.07256065415169871
101.0651169 0.001333608672165825
103.1274414 0.0014570693772217444
107.0487823 0.00206158946083033
107.999115  0.00289646257010287
108.0019226 0.003969754472112449
108.0202332 0.5685972318386948
108.0376663 0.006344303334712837
109.0062714 0.002107148249873326
109.0280609 0.37862813734331185
109.0347061 0.00565679683742065
109.0458374 0.0016296738603163246
109.0521545 0.0015211743858716113
113.0231247 0.008961625603368493
121.0278931 0.01601180803375209
123.0072556 0.009496767898079987
123.0439148 0.014635649139060942
132.8912354 0.0011748322517991271
133.027771  0.010678541237217773
135.0075226 0.0026080289030422513
135.0440063 0.005130452123259528
139.038208  0.0016189907532266276
151.0387726 0.03327157767711896
151.9734802 0.008590140221751193
151.9797974 0.005498132113377471
152.0101929 1.0
152.0329285 0.006234625647321671
152.0392456 0.010088367186334808
152.052887  0.0019147068662519594
152.9818878 0.0018296913026907445
153.0180359 0.37611668235482365
153.0474548 0.0021604032821418728
161.044281  0.007528809086159095
163.038559  0.029004390749683192
163.0532074 0.0013386089635408285
165.0181885 0.022286655160646398
177.0198059 0.001434760206860212
177.8297729 0.0012727484513603855
179.0335541 0.00198949652529137
181.0492096 0.0054209362570263354
195.0284729 0.005208394165067396
207.0297699 0.0022632501316743594
216.1347809 0.004174691954271903
225.0398407 0.003012302460711291
292.7685547 0.0012681787406315628
315.0724792 0.01142275281349728
331.3994751 0.001567506464574232
399.1289368 0.09114211346636496
399.1781311 0.0015311449707316475


PRECURSORMZ: 399.12967096799986
COMPOUNDNAME: casmi2022challengebonus223
FORMULA: C18H24O10
SMILES: CC(C)CC(=O)OCC1C(C(C(C(O1)OC2=C(C=CC(=C2)C(=O)O)O)O)O)O
INCHIKEY: ZRFSFKIFDYASQA-LACBEWGXSA-N
PRECURSORTYPE: [M-H]-
PRECURSORINTENSITY: 24966283.63477
IONMODE: negative
CHARGE: -1
PARENTMASS: 400.13694696799985
NUM PEAKS: 61
59.01272583 0.0013425688779333906
60.12080383 0.001211036618430111
71.01251221 0.014202980408241073
73.02816772 0.004990852553383358
79.01789093 0.0014198257910831348
79.36701202 0.0012771183047641888
81.03340149 0.0022886414646631262
85.02814484 0.012712789405753027
93.03302002 0.00516803803258659
95.01255035 0.011106302274651066
99.00743866 0.0022660143745413313
101.0230942 0.006567253054745906
101.0593414 0.07256065415169871
101.0651169 0.001333608672165825
103.1274414 0.0014570693772217444
107.0487823 0.00206158946083033
107.999115  0.00289646257010287
108.0019226 0.003969754472112449
108.0202332 0.5685972318386948
108.0376663 0.006344303334712837
109.0062714 0.002107148249873326
109.0280609 0.37862813734331185
109.0347061 0.00565679683742065
109.0458374 0.0016296738603163246
109.0521545 0.0015211743858716113
113.0231247 0.008961625603368493
121.0278931 0.01601180803375209
123.0072556 0.009496767898079987
123.0439148 0.014635649139060942
132.8912354 0.0011748322517991271
133.027771  0.010678541237217773
135.0075226 0.0026080289030422513
135.0440063 0.005130452123259528
139.038208  0.0016189907532266276
151.0387726 0.03327157767711896
151.9734802 0.008590140221751193
151.9797974 0.005498132113377471
152.0101929 1.0
152.0329285 0.006234625647321671
152.0392456 0.010088367186334808
152.052887  0.0019147068662519594
152.9818878 0.0018296913026907445
153.0180359 0.37611668235482365
153.0474548 0.0021604032821418728
161.044281  0.007528809086159095
163.038559  0.029004390749683192
163.0532074 0.0013386089635408285
165.0181885 0.022286655160646398
177.0198059 0.001434760206860212
177.8297729 0.0012727484513603855
179.0335541 0.00198949652529137
181.0492096 0.0054209362570263354
195.0284729 0.005208394165067396
207.0297699 0.0022632501316743594
216.1347809 0.004174691954271903
225.0398407 0.003012302460711291
292.7685547 0.0012681787406315628
315.0724792 0.01142275281349728
331.3994751 0.001567506464574232
399.1289368 0.09114211346636496
399.1781311 0.0015311449707316475


