PRECURSORMZ: 901.2619264800003
COMPOUNDNAME: casmi2022challengebonus50
FORMULA: C39H50O24
SMILES: CC1C(C(C(C(O1)OCC2C(C(C(C(O2)OC3=C(OC4=CC(=CC(=C4C3=O)O)OC5C(C(C(C(O5)CO)O)O)OC6C(C(C(C(O6)C)O)O)O)C7=CC=C(C=C7)O)O)O)O)O)O)O
INCHIKEY: UKLPMOHKLUPGON-LJNAWGQTSA-N
PRECURSORTYPE: [M-H]-
PRECURSORINTENSITY: 1113826.228516
IONMODE: negative
CHARGE: -1
PARENTMASS: 902.2692024800003
NUM PEAKS: 13
64.46683502 0.03546113338135072
107.0114594 0.038451955725165264
142.2980347 0.04665233661163482
151.3039093 0.041653980494429026
212.3379059 0.03746779388988298
221.3262634 0.04175276666648937
221.3493042 0.04813567655658695
227.0348969 0.39399103897478094
255.0292053 1.0
283.0232544 0.19129053634191293
292.7910156 0.04336720102986014
583.3394775 0.03922394994752266
586.1160278 0.038785336075215025


