PRECURSORMZ: 325.12927374
COMPOUNDNAME: casmi2022challengebonus168
FORMULA: C15H20O5
SMILES: CC1=C2CC3C(CCC3(C(C=C2OC1=O)(C)O)O)(C)O
INCHIKEY: HPNXJLIPUVXDNH-SPWCGHHHSA-N
PRECURSORTYPE: [M+FA-H]-
PRECURSORINTENSITY: 26855796.72461
IONMODE: negative
CHARGE: -1
PARENTMASS: 280.13107274
NUM PEAKS: 24
57.0332222  0.7531550192305134
57.347435   0.07322770775662261
59.01218033 0.07680634607590392
80.55583191 0.07317067698870738
85.02812195 0.08289007721773993
94.87418365 0.0825889931763877
95.0487442  1.0
107.0487518 0.09983147557375684
109.0641251 0.8021004753817534
111.043335  0.12641707779606837
113.0595551 0.182047698800848
119.0855255 0.1460105158054071
121.0644608 0.38226657686788795
123.0437851 0.40791300734706715
123.0800247 0.3710917420803817
135.0441437 0.16307497375955216
137.0597534 0.20094433977819479
139.7657776 0.08964411154537014
147.0799866 0.10657819847139953
148.0508728 0.0975886500395164
190.1919708 0.08079655495748607
193.8287354 0.09833441589841155
199.1120148 0.11103481364020544
217.7395172 0.1992738152158573


PRECURSORMZ: 325.12927374
COMPOUNDNAME: casmi2022challengebonus168
FORMULA: C15H20O5
SMILES: CC1=C2CC3C(CCC3(C(C=C2OC1=O)(C)O)O)(C)O
INCHIKEY: HPNXJLIPUVXDNH-SPWCGHHHSA-N
PRECURSORTYPE: [M+FA-H]-
PRECURSORINTENSITY: 26855796.72461
IONMODE: negative
CHARGE: -1
PARENTMASS: 280.13107274
NUM PEAKS: 24
57.0332222  0.7531550192305134
57.347435   0.07322770775662261
59.01218033 0.07680634607590392
80.55583191 0.07317067698870738
85.02812195 0.08289007721773993
94.87418365 0.0825889931763877
95.0487442  1.0
107.0487518 0.09983147557375684
109.0641251 0.8021004753817534
111.043335  0.12641707779606837
113.0595551 0.182047698800848
119.0855255 0.1460105158054071
121.0644608 0.38226657686788795
123.0437851 0.40791300734706715
123.0800247 0.3710917420803817
135.0441437 0.16307497375955216
137.0597534 0.20094433977819479
139.7657776 0.08964411154537014
147.0799866 0.10657819847139953
148.0508728 0.0975886500395164
190.1919708 0.08079655495748607
193.8287354 0.09833441589841155
199.1120148 0.11103481364020544
217.7395172 0.1992738152158573


