PRECURSORMZ: 778.4134023400001
COMPOUNDNAME: casmi2022challengebonus115
FORMULA: C40H55N7O9
SMILES: CCC(C)C1C(=O)NC(C(=O)NC(C(=O)NC(C(=O)NC2=CC=CC=C2C(=O)NC(C(=O)N3CCCC3C(=O)N1)C(C)CC)CC4=CC=C(C=C4)O)C)C(C)O
INCHIKEY: BSMORZQXPRJUEU-UHFFFAOYSA-N
PRECURSORTYPE: [M+H]+
PRECURSORINTENSITY: 10584111.87598
IONMODE: positive
CHARGE: 1
PARENTMASS: 777.40612634
NUM PEAKS: 105
56.04974747 0.004730788863138954
58.06510544 0.0026202054264543168
64.4585495  0.0028103754474434754
64.47318268 0.0031461676290791434
68.04938507 0.0030684075570164364
69.07003784 0.034469360687170485
70.05108643 0.003200357364454499
70.05580902 0.013061549003221672
70.06517792 1.0
70.07707214 0.008275732542505307
74.06008148 0.016853358425901615
84.0803833  0.0041831336291371585
86.08367157 0.003587075038723028
86.09640503 0.5478448150493932
86.16491699 0.0029909501413001023
91.054039   0.006971434542414064
95.41680908 0.002669945752552828
96.08072662 0.029664188659628648
99.09172058 0.003702488372159759
100.0757751 0.005181153286155025
101.0402908 0.002972968592489486
101.0467606 0.005806387720379153
101.0711212 0.003966471203281845
107.0496292 0.004831307248521387
112.1122589 0.005989527298527899
116.0707779 0.004883923094898527
119.0493469 0.0059494550662792635
120.0340347 0.005699760350587141
120.0360107 0.004515745924224828
120.044281  0.32821968412857927
124.075264  0.0032759899124947898
126.0916672 0.015566233371098968
127.0869522 0.011975494917641117
130.04953   0.004515140611531927
131.2109528 0.0029891837909842823
136.0756683 0.4355064640130334
138.1276703 0.04950148863300431
141.1022339 0.012873051666773832
145.0970001 0.068638613952883
146.0601501 0.04118053281062608
147.0547485 0.008680264573126893
148.0391388 0.15503889127592432
148.052475  0.005220955730574415
154.1589355 0.022776243950794493
155.0817566 0.019974519383089744
156.0330811 0.003341818522813417
157.1333313 0.03490987329462477
160.075531  0.011489554599536248
162.0912628 0.0069072303588137395
173.0921631 0.05556999422863796
179.0931702 0.0031007015401599346
181.0975647 0.0040269526948214064
183.0764465 0.0043925068438256595
185.1287537 0.013169590289228603
188.1065979 0.02744528027973353
191.0812988 0.03118402889610955
192.1017151 0.027978259435807288
199.0870819 0.006493143279242581
201.0860596 0.0038712087407925377
202.0862885 0.007102574226398675
203.0806885 0.005794912238064783
204.1399231 0.009776062179154634
205.1333313 0.24400424744230803
215.1182404 0.010506817093105114
216.1133118 0.005764151485753646
217.0969238 0.31217307490834934
219.1120758 0.0050621111164234405
221.0683289 0.005092268455955928
221.0899658 0.020784016624791138
224.1395416 0.0032884807090059805
229.0983582 0.004527378719442447
230.0807495 0.07707650721994182
231.1489716 0.08510903477398839
233.1283417 0.09637263864668613
237.1239166 0.02298228433583471
243.1128235 0.046934488596331404
247.1075592 0.2038384421349701
247.1367493 0.005289291087807913
249.1593628 0.14291541963385654
256.1091309 0.00649617022269014
257.0930481 0.006331304020187024
259.1437073 0.029184698930522744
261.1229553 0.003252645285625067
264.3505554 0.0031625610395343453
265.1191711 0.036277586633902945
273.1976929 0.005438830301747041
274.1188354 0.016189238065911816
275.102478  0.003409213042490279
275.1758423 0.011492078445679694
277.1542664 0.04000591764024152
284.1765442 0.010953290871637145
285.1600647 0.0035529856365750074
290.1512146 0.02690289882781915
292.1284485 0.0120740715906187
317.2236938 0.00547459884814493
318.1459351 0.01836080666141443
334.174408  0.004055751975619074
340.1264343 0.003509554735843738
360.1921692 0.03408258981530182
378.1887512 0.004833971688322326
403.2376404 0.003158227145046439
462.8494873 0.002750830043674843
578.5284424 0.0036508452818994116
651.8346558 0.003537841419765801
670.2974243 0.00411162883488428


