PRECURSORMZ: 329.2322501239999
COMPOUNDNAME: casmi2022challengebonus3
FORMULA: C18H32O5
SMILES: CC(CCCC=CCC=CC(C(CCCCCC(=O)O)O)O)O
INCHIKEY: CAIKQNWPWSTGHN-UHFFFAOYSA-N
PRECURSORTYPE: [M+H]+
PRECURSORINTENSITY: 6971199.09375
IONMODE: positive
CHARGE: 1
PARENTMASS: 328.2249741239999
NUM PEAKS: 50
55.05450058 0.06793047690812963
67.05421448 0.27306583002017926
69.06996918 0.7200534968535658
72.93513489 0.04455865810007984
73.06491852 0.03934817758945323
77.58382416 0.038524357396075785
79.05429077 0.35188014718227345
81.06985474 0.6833162364913705
83.08535767 0.03689915478311717
85.06493378 0.058236804666164224
86.3416214  0.044107329673993376
91.05428314 0.17984808276570938
93.06991577 0.5046771656219573
95.08560181 0.4729132256891551
97.0647583  0.27807671002847717
99.08052826 0.06353272360457193
102.4925766 0.045792671563952295
105.0698471 0.25662422049681344
107.0857086 0.35628485477646504
109.1008606 0.08998743118411327
111.0806885 0.043443705388156915
115.0752945 0.05032149424640819
117.0693283 0.04693854088196264
119.0854263 0.2853961032092545
121.1007004 0.34828105684560773
125.0597687 0.266924225389997
131.0852814 0.1680361354280847
133.1012115 0.4618445221689051
135.1167297 1.0
137.0955658 0.05126884351804076
141.090332  0.05951248435719537
143.0702362 0.3936135457385206
143.0825043 0.0554419215004444
145.101059  0.3045598390933722
147.1167908 0.27322458379371745
149.1320801 0.06389071620238512
157.1012573 0.08130980415252552
159.1169586 0.20909000044243756
161.132309  0.07390450556724157
163.1117096 0.096336199508279
171.5078888 0.04723521760456197
172.825058  0.043257409144275956
173.1325226 0.18369637385797638
177.1274872 0.045810375475657465
199.1468201 0.04478829619348503
216.7646332 0.20052149030548994
275.2015991 0.05378816005603381
285.0903015 0.049216018415071006
304.2522278 0.04515023978064473
340.7109985 0.03934939081329786


PRECURSORMZ: 329.2322501239999
COMPOUNDNAME: casmi2022challengebonus3
FORMULA: C18H32O5
SMILES: CC(CCCC=CCC=CC(C(CCCCCC(=O)O)O)O)O
INCHIKEY: CAIKQNWPWSTGHN-UHFFFAOYSA-N
PRECURSORTYPE: [M+H]+
PRECURSORINTENSITY: 6971199.09375
IONMODE: positive
CHARGE: 1
PARENTMASS: 328.2249741239999
NUM PEAKS: 50
55.05450058 0.06793047690812963
67.05421448 0.27306583002017926
69.06996918 0.7200534968535658
72.93513489 0.04455865810007984
73.06491852 0.03934817758945323
77.58382416 0.038524357396075785
79.05429077 0.35188014718227345
81.06985474 0.6833162364913705
83.08535767 0.03689915478311717
85.06493378 0.058236804666164224
86.3416214  0.044107329673993376
91.05428314 0.17984808276570938
93.06991577 0.5046771656219573
95.08560181 0.4729132256891551
97.0647583  0.27807671002847717
99.08052826 0.06353272360457193
102.4925766 0.045792671563952295
105.0698471 0.25662422049681344
107.0857086 0.35628485477646504
109.1008606 0.08998743118411327
111.0806885 0.043443705388156915
115.0752945 0.05032149424640819
117.0693283 0.04693854088196264
119.0854263 0.2853961032092545
121.1007004 0.34828105684560773
125.0597687 0.266924225389997
131.0852814 0.1680361354280847
133.1012115 0.4618445221689051
135.1167297 1.0
137.0955658 0.05126884351804076
141.090332  0.05951248435719537
143.0702362 0.3936135457385206
143.0825043 0.0554419215004444
145.101059  0.3045598390933722
147.1167908 0.27322458379371745
149.1320801 0.06389071620238512
157.1012573 0.08130980415252552
159.1169586 0.20909000044243756
161.132309  0.07390450556724157
163.1117096 0.096336199508279
171.5078888 0.04723521760456197
172.825058  0.043257409144275956
173.1325226 0.18369637385797638
177.1274872 0.045810375475657465
199.1468201 0.04478829619348503
216.7646332 0.20052149030548994
275.2015991 0.05378816005603381
285.0903015 0.049216018415071006
304.2522278 0.04515023978064473
340.7109985 0.03934939081329786


