PRECURSORMZ: 391.1515938679999
COMPOUNDNAME: casmi2022challengebonus35
FORMULA: C22H24O5
SMILES: CC(=CCCC(=CCOC1=C2C=COC2=C(C3=C1C=CC(=O)O3)OC)C)C
INCHIKEY: OQHQALGVQDTJDN-UHFFFAOYSA-N
PRECURSORTYPE: [M+Na]+
PRECURSORINTENSITY: 2014913.021484
IONMODE: positive
CHARGE: 1
PARENTMASS: 368.1623758679999
NUM PEAKS: 15
53.60565948 0.010980516653878974
58.49693298 0.01002585045087199
64.43001556 0.009057808395033246
89.05980682 0.037188825783993115
194.0549316 0.01255838508473974
216.1271057 0.05190077499029333
218.8629303 0.010745738659916227
228.984375  0.01062328124150846
238.9949951 1.0
254.0184174 0.8731302611335315
257.0066223 0.021835516648126375
280.0218506 0.022982570315216312
307.0285339 0.01152642360442111
327.5949402 0.009769672572827627
333.2771912 0.010935912853386458


