PRECURSORMZ: 226.143769468
COMPOUNDNAME: casmi2022challengebonus59
FORMULA: C12H19NO3
SMILES: C(CC=CCC=CCCC(=O)N)CC(=O)O
INCHIKEY: WWRKWRLCWQCCHU-UHFFFAOYSA-N
PRECURSORTYPE: [M+H]+
PRECURSORINTENSITY: 10442869.17969
IONMODE: positive
CHARGE: 1
PARENTMASS: 225.136493468
NUM PEAKS: 70
50.21878052 0.004261210458692416
50.98083878 0.003539427478121684
55.01819611 0.003712516679520613
58.03040695 0.0033019311794583125
67.05431366 0.06843985870108092
67.52519989 0.004619873429329439
69.06982422 0.008526877564922966
70.06498718 0.004087173592877788
71.04904175 0.025418631833024775
78.41445923 0.00346600013564263
79.05426025 0.07579421721461911
79.63104248 0.0036499343945127598
81.03346252 0.006621826064631043
81.06973267 0.03301032563238011
83.04911041 0.031035880337697296
85.02839661 0.00535411629693838
85.0645752  0.016077153845729542
86.05976868 0.005795816843946381
91.05420685 0.11764720852146111
93.06989288 0.037269746145344625
95.0490799  0.0785171661789218
97.06468201 0.09113107081895004
98.05982971 0.0046090440422082305
99.04415131 0.007163235089850026
101.0232544 0.007502965927143232
105.0331345 0.004693209100261116
105.0698318 0.017915262394369306
107.040657  0.010239994700914527
107.0490494 0.4888853341570505
107.0575409 0.009224922707565775
107.0853882 0.039812141337029365
109.0647507 0.026996556158522766
111.0439987 0.04096844079265394
112.0755768 0.006004370789690324
113.059639  0.018425145809472614
117.069809  0.06610225617938313
119.0854034 0.04457339540630585
121.064743  0.009044196561097898
121.1011276 0.06815191915403176
123.0437164 0.04661315785382898
125.0598602 0.06020374839786342
126.091423  0.0055744774596432475
129.0695953 0.06938162166309299
131.0488434 0.018669943315956377
131.0854187 0.2765081646284347
131.0938263 0.005407999187147605
135.0805206 0.005508907230650463
135.1167603 0.05088714552414688
141.0730133 0.00414711777446426
145.0656738 0.0348166719486193
145.1010132 0.5831848369180408
147.080307  0.09019413432473579
147.1164551 0.005074453828755458
149.0959473 0.20602567580578193
155.072998  0.0042797018634428835
155.0852356 0.2153824417865302
155.0995636 0.006838803998772448
163.1116028 0.27378310330095296
165.0905609 0.005633878271843675
166.007843  0.00470002217667931
173.0959167 0.576613218654787
190.1222076 0.0929584091360397
191.1063538 1.0
191.1490936 0.004284805696435565
208.1327057 0.07222123324902267
209.1172638 0.03174682844652424
218.6850739 0.00854725215398371
218.7061157 0.004366414136887192
226.1435699 0.0073075699825294405
226.2158051 0.007012200339031237


PRECURSORMZ: 226.143769468
COMPOUNDNAME: casmi2022challengebonus59
FORMULA: C12H19NO3
SMILES: C(CC=CCC=CCCC(=O)N)CC(=O)O
INCHIKEY: WWRKWRLCWQCCHU-UHFFFAOYSA-N
PRECURSORTYPE: [M+H]+
PRECURSORINTENSITY: 10442869.17969
IONMODE: positive
CHARGE: 1
PARENTMASS: 225.136493468
NUM PEAKS: 70
50.21878052 0.004261210458692416
50.98083878 0.003539427478121684
55.01819611 0.003712516679520613
58.03040695 0.0033019311794583125
67.05431366 0.06843985870108092
67.52519989 0.004619873429329439
69.06982422 0.008526877564922966
70.06498718 0.004087173592877788
71.04904175 0.025418631833024775
78.41445923 0.00346600013564263
79.05426025 0.07579421721461911
79.63104248 0.0036499343945127598
81.03346252 0.006621826064631043
81.06973267 0.03301032563238011
83.04911041 0.031035880337697296
85.02839661 0.00535411629693838
85.0645752  0.016077153845729542
86.05976868 0.005795816843946381
91.05420685 0.11764720852146111
93.06989288 0.037269746145344625
95.0490799  0.0785171661789218
97.06468201 0.09113107081895004
98.05982971 0.0046090440422082305
99.04415131 0.007163235089850026
101.0232544 0.007502965927143232
105.0331345 0.004693209100261116
105.0698318 0.017915262394369306
107.040657  0.010239994700914527
107.0490494 0.4888853341570505
107.0575409 0.009224922707565775
107.0853882 0.039812141337029365
109.0647507 0.026996556158522766
111.0439987 0.04096844079265394
112.0755768 0.006004370789690324
113.059639  0.018425145809472614
117.069809  0.06610225617938313
119.0854034 0.04457339540630585
121.064743  0.009044196561097898
121.1011276 0.06815191915403176
123.0437164 0.04661315785382898
125.0598602 0.06020374839786342
126.091423  0.0055744774596432475
129.0695953 0.06938162166309299
131.0488434 0.018669943315956377
131.0854187 0.2765081646284347
131.0938263 0.005407999187147605
135.0805206 0.005508907230650463
135.1167603 0.05088714552414688
141.0730133 0.00414711777446426
145.0656738 0.0348166719486193
145.1010132 0.5831848369180408
147.080307  0.09019413432473579
147.1164551 0.005074453828755458
149.0959473 0.20602567580578193
155.072998  0.0042797018634428835
155.0852356 0.2153824417865302
155.0995636 0.006838803998772448
163.1116028 0.27378310330095296
165.0905609 0.005633878271843675
166.007843  0.00470002217667931
173.0959167 0.576613218654787
190.1222076 0.0929584091360397
191.1063538 1.0
191.1490936 0.004284805696435565
208.1327057 0.07222123324902267
209.1172638 0.03174682844652424
218.6850739 0.00854725215398371
218.7061157 0.004366414136887192
226.1435699 0.0073075699825294405
226.2158051 0.007012200339031237


