PRECURSORMZ: 809.4328921080003
COMPOUNDNAME: casmi2022challengebonus143
FORMULA: C41H64O13
SMILES: CC1C(C(C(C(O1)OC2C(C(COC2OC3CCC4(C(C3(C)C)CCC5(C4CC(C6=C7C(C8(CCC7(CCC65C)C(=O)O8)C)(C)O)O)C)C)O)O)O)O)O
INCHIKEY: SJXTZRXLMREHNE-NXKUZLGNSA-N
PRECURSORTYPE: [M+FA-H]-
PRECURSORINTENSITY: 38312852.90039
IONMODE: negative
CHARGE: -1
PARENTMASS: 764.4346911080003
NUM PEAKS: 45
57.03317261 0.011186879064140095
58.00473404 0.007332743732289
58.92737579 0.004496728705171713
59.00544357 0.006367988379351142
59.01251221 0.5934024694826492
59.0211792  0.005364301991713457
61.70721817 0.005452114249322606
71.01254272 0.14358056161458813
72.99185181 0.005632504002977329
73.02822876 0.09236910681440956
83.0124054  0.031760191977340285
84.96770477 0.004547968208807322
85.02258301 0.008067100368471358
85.02813721 0.1792225490241358
89.02310181 0.0963653632806737
99.00711823 0.010611186248101503
101.0230637 0.4459839775466404
101.0297318 0.005557495834502817
101.0310822 0.0056646338758824105
103.0387421 0.07931966117268227
110.6501236 0.004880472515692351
112.2655411 0.005395995473756704
113.0229721 0.021684515184539333
114.3050308 0.004767397924678104
119.0337372 0.04439453391702215
127.0388031 0.010874127741128267
131.0101013 0.0068901051965309466
131.0336304 1.0
131.0624695 0.005521049368368582
145.0498352 0.02009928350965503
163.0601044 0.035430330352756965
297.5240479 0.005315594712431793
304.2662354 0.00564528732780408
304.3033447 0.006779323870131979
334.089386  0.005410660861824958
397.2740479 0.09957563146806145
432.8234863 0.0052412455554306245
529.3171387 0.018653118233150374
555.3676147 0.1710543686861799
569.3531494 0.006254873961713808
599.3568115 0.04750220055368292
675.3751831 0.020206137318296923
701.4265747 0.1652485102855025
701.5606079 0.00734853890293957
745.416748  0.04890596579449421


