PRECURSORMZ: 345.0615914079999
COMPOUNDNAME: casmi2022challengebonus247
FORMULA: C17H14O8
SMILES: CC1=CC(=C(C2=C1C(=O)OC3=C(O2)C(=C(C(=C3)C(=O)O)C)OC)O)O
INCHIKEY: SNXYIHBATNUFDM-UHFFFAOYSA-N
PRECURSORTYPE: [M-H]-
PRECURSORINTENSITY: 78882517.33594
IONMODE: negative
CHARGE: -1
PARENTMASS: 346.0688674079999
NUM PEAKS: 52
52.94718552 0.0010230040344862733
67.78752899 0.0010791824827196435
74.40444946 0.0011523814624058199
82.54392242 0.0010599721819565997
106.9467697 0.000970830612247984
109.0195312 0.0012477487086489647
109.0280914 0.09658918953965669
109.0347366 0.0019379733010558692
121.0280762 0.006081008960275289
123.0067749 0.0013736685788080614
135.0070343 0.0039023311927388225
136.9849243 0.001805896563544109
136.9982605 0.01099304111354917
137.0032654 0.007708765598693338
137.023056  1.0
137.0488129 0.004377968859199342
137.0561066 0.009047327194046589
137.0601349 0.009512542756533364
137.4658966 0.0013413765541125753
142.5011749 0.0011377943303635004
149.0228577 0.005420504649391651
163.0025177 0.03134935714250848
181.2733002 0.0010685137434253572
192.0065308 0.0014283654534373207
198.0673676 0.004715831890473875
207.0283356 0.010176399649723793
214.0630493 0.005749807155221099
227.0348053 0.006863761902031961
229.0886536 0.001329191525738388
230.0574493 0.001389590443173312
240.0440216 0.0040548583507114926
241.0499725 0.013303053225556909
242.0367889 0.001253223390995273
242.0578003 0.08152560945768045
242.0859375 0.0020210305432119807
254.0570068 0.0015092723050318527
255.0661163 0.009495918292389428
257.0502625 0.0020555986595798934
257.0818481 0.012198036625665105
258.0530396 0.010924852043346853
268.0375977 0.005762526076524458
269.0460815 0.0015733375912233998
271.0245361 0.0018786199930260982
273.0762634 0.017687642274175363
283.0606079 0.018736136690809327
285.0402527 0.00205896616435986
286.0171814 0.0014511223286584386
286.04776   0.05937355616781763
301.0713196 0.060848579635230556
314.1428833 0.0010873027952060473
345.0619202 0.004223123743726725
348.110199  0.0011503937682531692


PRECURSORMZ: 345.0615914079999
COMPOUNDNAME: casmi2022challengebonus247
FORMULA: C17H14O8
SMILES: CC1=CC(=C(C2=C1C(=O)OC3=C(O2)C(=C(C(=C3)C(=O)O)C)OC)O)O
INCHIKEY: SNXYIHBATNUFDM-UHFFFAOYSA-N
PRECURSORTYPE: [M-H]-
PRECURSORINTENSITY: 78882517.33594
IONMODE: negative
CHARGE: -1
PARENTMASS: 346.0688674079999
NUM PEAKS: 52
52.94718552 0.0010230040344862733
67.78752899 0.0010791824827196435
74.40444946 0.0011523814624058199
82.54392242 0.0010599721819565997
106.9467697 0.000970830612247984
109.0195312 0.0012477487086489647
109.0280914 0.09658918953965669
109.0347366 0.0019379733010558692
121.0280762 0.006081008960275289
123.0067749 0.0013736685788080614
135.0070343 0.0039023311927388225
136.9849243 0.001805896563544109
136.9982605 0.01099304111354917
137.0032654 0.007708765598693338
137.023056  1.0
137.0488129 0.004377968859199342
137.0561066 0.009047327194046589
137.0601349 0.009512542756533364
137.4658966 0.0013413765541125753
142.5011749 0.0011377943303635004
149.0228577 0.005420504649391651
163.0025177 0.03134935714250848
181.2733002 0.0010685137434253572
192.0065308 0.0014283654534373207
198.0673676 0.004715831890473875
207.0283356 0.010176399649723793
214.0630493 0.005749807155221099
227.0348053 0.006863761902031961
229.0886536 0.001329191525738388
230.0574493 0.001389590443173312
240.0440216 0.0040548583507114926
241.0499725 0.013303053225556909
242.0367889 0.001253223390995273
242.0578003 0.08152560945768045
242.0859375 0.0020210305432119807
254.0570068 0.0015092723050318527
255.0661163 0.009495918292389428
257.0502625 0.0020555986595798934
257.0818481 0.012198036625665105
258.0530396 0.010924852043346853
268.0375977 0.005762526076524458
269.0460815 0.0015733375912233998
271.0245361 0.0018786199930260982
273.0762634 0.017687642274175363
283.0606079 0.018736136690809327
285.0402527 0.00205896616435986
286.0171814 0.0014511223286584386
286.04776   0.05937355616781763
301.0713196 0.060848579635230556
314.1428833 0.0010873027952060473
345.0619202 0.004223123743726725
348.110199  0.0011503937682531692


