PRECURSORMZ: 209.081929624
COMPOUNDNAME: casmi2022challengebonus0
FORMULA: C10H12O2
SMILES: COC1=CC=C(C=C1)C=CCO
INCHIKEY: NYICIIFSBJOBKE-UHFFFAOYSA-N
PRECURSORTYPE: [M+FA-H]-
PRECURSORINTENSITY: 722147.7539062
IONMODE: negative
CHARGE: -1
PARENTMASS: 164.083728624
NUM PEAKS: 16
63.52551651 0.01893962154564265
63.96102905 0.028627228171865256
122.0360184 0.042537049217296403
123.0433121 0.08982150531802045
125.0228043 0.024555150939190164
153.0910187 0.03376335424762407
158.27005   0.0205754411993026
161.9469147 0.0908415922263232
165.0908508 0.994439885659367
166.0260162 0.0243469395236382
175.9700165 0.02162346630333509
181.0858459 0.390972950342307
209.0810547 1.0
212.6435242 0.026083220828931438
220.7658234 0.02809885039825699
251.5988312 0.023396245189431737


PRECURSORMZ: 209.081929624
COMPOUNDNAME: casmi2022challengebonus0
FORMULA: C10H12O2
SMILES: COC1=CC=C(C=C1)C=CCO
INCHIKEY: NYICIIFSBJOBKE-UHFFFAOYSA-N
PRECURSORTYPE: [M+FA-H]-
PRECURSORINTENSITY: 722147.7539062
IONMODE: negative
CHARGE: -1
PARENTMASS: 164.083728624
NUM PEAKS: 16
63.52551651 0.01893962154564265
63.96102905 0.028627228171865256
122.0360184 0.042537049217296403
123.0433121 0.08982150531802045
125.0228043 0.024555150939190164
153.0910187 0.03376335424762407
158.27005   0.0205754411993026
161.9469147 0.0908415922263232
165.0908508 0.994439885659367
166.0260162 0.0243469395236382
175.9700165 0.02162346630333509
181.0858459 0.390972950342307
209.0810547 1.0
212.6435242 0.026083220828931438
220.7658234 0.02809885039825699
251.5988312 0.023396245189431737


