PRECURSORMZ: 223.06009942
COMPOUNDNAME: casmi2022challengebonus91
FORMULA: C11H10O5
SMILES: COC(=O)C(=C)OC1=CC=CC(=C1)C(=O)O
INCHIKEY: SWBWWNMIUNNZJC-UHFFFAOYSA-N
PRECURSORTYPE: [M+H]+
PRECURSORINTENSITY: 6750186.675781
IONMODE: positive
CHARGE: 1
PARENTMASS: 222.05282342
NUM PEAKS: 58
50.74217224 0.008802618643763228
53.03880692 0.010059184030220339
53.12224197 0.005379716122011818
65.03855896 0.005872882098625276
77.03882599 0.007866896943344056
78.04638672 0.1378672015021501
79.02112579 0.005725495573829055
79.0541687  0.08139291988599763
81.03353882 0.006397945679957212
84.95993805 0.005752913226531215
89.03874969 0.02031999945482913
91.0539093  0.00869647928288354
95.04920197 0.012666289887440682
105.0334549 0.049863734125362005
105.044838  0.01804852740307971
106.0413284 0.10717450580122073
106.6040192 0.004896446845389998
107.0403519 0.008293164540084696
107.0490799 0.4785686542266571
118.0412598 0.03282354012142417
121.0285034 0.009014565076257185
122.0357666 0.006770985298847556
123.0441971 0.022540029448232354
124.0515289 0.006953010003019679
133.0284882 0.051727290256244854
134.0361481 0.2686044235316806
135.0439911 0.13297791240565757
137.0224915 0.009115831041641426
137.9589233 0.00545266389831387
140.7603912 0.005122631385833413
144.0202332 0.007620150516343315
145.0392914 0.0499730194105075
149.023407  0.027074076425474623
150.030899  0.02725517082794137
151.039093  0.010817075231363493
152.0466614 0.021896009557046243
161.0238647 0.04431509653646088
162.0310211 1.0
163.0388336 0.09717810171225909
165.0183105 0.0331009096560429
167.0692749 0.03591521572937801
171.7265625 0.005189318702491999
177.0183716 0.005825005926222213
178.0259705 0.03612800857947936
179.0159302 0.008924250585746961
179.0337372 0.2313340455883381
180.0413971 0.05616526342317015
182.7075348 0.0053471014435528905
190.0059967 0.011834806896598653
190.0259552 0.5287637207974236
193.0129242 0.1174273289654548
194.020752  0.10279690320778678
195.0628204 0.004937403391496151
205.013382  0.005387781442729939
207.0287628 0.34329357742302646
207.0514832 0.00782281828523193
208.0364838 0.13654841792729638
223.0597687 0.06957299889905964


