PRECURSORMZ: 541.1351502719998
COMPOUNDNAME: casmi2022challengebonus63
FORMULA: C27H26O12
SMILES: C1=CC(=CC=C1C=CC2=CC(=CC(=C2)O)O)OC3C(C(C(C(O3)COC(=O)C4=CC(=C(C(=C4)O)O)O)O)O)O
INCHIKEY: HQQSMUBDNVIUPF-DGCJFVAGSA-N
PRECURSORTYPE: [M-H]-
PRECURSORINTENSITY: 8731910.410156
IONMODE: negative
CHARGE: -1
PARENTMASS: 542.1424262719999
NUM PEAKS: 43
78.26235199 0.005864456984543037
88.66755676 0.005789427526588498
101.0227966 0.0074097095192640575
107.4103928 0.005846002992425331
113.0229568 0.012701413392977071
123.0074615 0.052411665127192794
124.015274  0.021104233256073177
124.4153214 0.005710285135016472
125.0231171 0.15975422739949444
125.032753  0.009832823720799067
126.8969269 0.00558742330348595
127.0018082 0.007527203151826126
139.0029449 0.023182409590656976
140.0106964 0.0062878449572628895
141.0181732 0.008637531606427825
151.0023193 0.15940728876689098
163.7082825 0.005435796797883687
166.9970398 0.00686022009595877
168.0055389 0.05551871940812906
169.000061  0.014638908499232597
169.0131226 1.0
169.0486298 0.007750952211272361
174.1712646 0.005642058678144814
209.0465851 0.005749936898546869
211.0238953 0.03074769492699329
214.3957062 0.005469333370149247
215.1832275 0.020673086410636567
215.2112885 0.026235879358933796
217.075943  0.005730661314369155
223.0240173 0.009521216530766556
224.1326599 0.005350502412496615
227.051178  0.006205413710791905
227.0706787 0.35890126763100755
241.0354309 0.023763613362675642
253.0361328 0.02280650237796195
297.9999084 0.005776330792140522
304.2999878 0.006948586996931128
309.9638672 0.006287928011666101
313.0236206 0.008279444785194162
313.0560608 0.6194381758539624
337.6020203 0.006171641403274566
409.527771  0.0067112384006321035
541.1343384 0.1129164138895131


