PRECURSORMZ: 504.16310474399995
COMPOUNDNAME: casmi2022challengebonus97
FORMULA: C22H27ClO10
SMILES: CC(=O)OC1C(C2C(C3C(O3)(CCC=C1C(=O)OC)C)OC(=O)C2=C)OC(=O)C(C)(CCl)O
INCHIKEY: PGNVHGFFGWMRSN-XGGIRRNYSA-N
PRECURSORTYPE: [M+NH4]+
PRECURSORINTENSITY: 33188781.11133
IONMODE: positive
CHARGE: 1
PARENTMASS: 486.12928174399997
NUM PEAKS: 97
53.03882217 0.15146700560862966
55.01797485 0.0396967826020926
62.95601273 0.00796389623232711
63.52013779 0.006874268415144216
63.74332428 0.007725809457482861
65.03863525 0.048687110367764685
67.05425262 0.03264937834980486
71.04910278 0.010995644544238783
78.35190582 0.0078064177299865
79.05408478 0.09744844338900734
81.03334045 0.013028942822821084
81.06941223 0.008250025906984253
83.04904938 0.016603729901170847
84.05380249 0.007361812660065594
91.04806519 0.013469045973227785
91.05419922 0.3433946437567055
93.00993347 0.009574718629113098
93.03344727 0.00911769398582218
93.06974792 0.05072463718479591
95.04923248 0.0801235697094073
103.0542297 0.25662365503854884
105.033371  0.044889410692680834
105.0445175 0.02824368652421919
105.0698395 0.17055526177454083
107.0488358 0.03708147866399615
109.0284271 0.07506833181136936
109.0648575 0.01232999244954523
115.0447617 0.010614882821169425
115.0541763 0.5786129552339055
115.0616226 0.012368040733313945
116.0622025 0.053689046908716995
117.0698013 0.12858702378608533
118.0406265 0.009473990855690808
119.0491486 0.06761950874682413
121.0638275 0.023360782667850837
123.0437698 0.033129459964388784
127.0539551 0.012889913567059506
128.0619049 0.29768646472364124
128.0722198 0.008067744953348898
129.0697174 0.28922668704128246
130.0775299 0.04685803814212625
131.0490112 0.12882006432564733
131.0852966 0.14942283446968527
133.0646973 0.08919606836195056
135.0802307 0.00902036237583723
139.0542908 0.014962664341773868
140.0619354 0.008920601527391632
141.0697632 1.0
141.0798645 0.01693332961159988
142.0420074 0.007502377620201682
142.0776367 0.17933435832681296
143.049057  0.1074329119195808
143.0854797 0.052452322342183166
144.0569    0.03257187023081533
145.0645599 0.0980418919114628
145.1010132 0.0537845675984896
147.0442505 0.014656702613850924
147.0800018 0.016278899375414168
149.0598145 0.03479774498172665
152.0621033 0.09532126226068209
153.0696564 0.18007527361102357
154.0775909 0.08012732732297824
155.0478516 0.013765010638743549
155.0605316 0.0497706632540229
155.0852661 0.3725949022492057
157.0642548 0.04386825474114935
157.1013184 0.016043866273187244
158.0727234 0.0535067145814586
159.0440063 0.08870852778657382
159.0800018 0.14187754641924868
161.0595703 0.05119546420814361
165.0543213 0.012471759185505945
165.0696106 0.15824757037012102
166.077713  0.018283061470643965
167.0485992 0.011995183209103758
167.085556  0.01697828887084899
168.0568085 0.15361494168066311
169.0641632 0.3069358696703046
170.072464  0.017658183299521336
171.0437622 0.053974831034600185
171.0799103 0.0304264000926878
172.0521393 0.012431090846962185
173.0590515 0.010072161470330642
173.0956116 0.04817150022330401
183.0801392 0.27887555762398264
184.0872803 0.013347115571668188
185.0598907 0.035582775529950726
185.0954285 0.014111064586723177
186.0674896 0.011028071085829108
187.0754242 0.07409301580976768
189.0547638 0.029985807669680717
197.0590363 0.038541734757103555
201.0905304 0.038827399011199644
211.075119  0.033688593353016445
215.06987   0.010810049991917217
217.2684479 0.014847060234936961
429.1976929 0.007584554011389546


PRECURSORMZ: 504.16310474399995
COMPOUNDNAME: casmi2022challengebonus97
FORMULA: C22H27ClO10
SMILES: CC(=O)OC1C(C2C(C3C(O3)(CCC=C1C(=O)OC)C)OC(=O)C2=C)OC(=O)C(C)(CCl)O
INCHIKEY: PGNVHGFFGWMRSN-XGGIRRNYSA-N
PRECURSORTYPE: [M+NH4]+
PRECURSORINTENSITY: 33188781.11133
IONMODE: positive
CHARGE: 1
PARENTMASS: 486.12928174399997
NUM PEAKS: 97
53.03882217 0.15146700560862966
55.01797485 0.0396967826020926
62.95601273 0.00796389623232711
63.52013779 0.006874268415144216
63.74332428 0.007725809457482861
65.03863525 0.048687110367764685
67.05425262 0.03264937834980486
71.04910278 0.010995644544238783
78.35190582 0.0078064177299865
79.05408478 0.09744844338900734
81.03334045 0.013028942822821084
81.06941223 0.008250025906984253
83.04904938 0.016603729901170847
84.05380249 0.007361812660065594
91.04806519 0.013469045973227785
91.05419922 0.3433946437567055
93.00993347 0.009574718629113098
93.03344727 0.00911769398582218
93.06974792 0.05072463718479591
95.04923248 0.0801235697094073
103.0542297 0.25662365503854884
105.033371  0.044889410692680834
105.0445175 0.02824368652421919
105.0698395 0.17055526177454083
107.0488358 0.03708147866399615
109.0284271 0.07506833181136936
109.0648575 0.01232999244954523
115.0447617 0.010614882821169425
115.0541763 0.5786129552339055
115.0616226 0.012368040733313945
116.0622025 0.053689046908716995
117.0698013 0.12858702378608533
118.0406265 0.009473990855690808
119.0491486 0.06761950874682413
121.0638275 0.023360782667850837
123.0437698 0.033129459964388784
127.0539551 0.012889913567059506
128.0619049 0.29768646472364124
128.0722198 0.008067744953348898
129.0697174 0.28922668704128246
130.0775299 0.04685803814212625
131.0490112 0.12882006432564733
131.0852966 0.14942283446968527
133.0646973 0.08919606836195056
135.0802307 0.00902036237583723
139.0542908 0.014962664341773868
140.0619354 0.008920601527391632
141.0697632 1.0
141.0798645 0.01693332961159988
142.0420074 0.007502377620201682
142.0776367 0.17933435832681296
143.049057  0.1074329119195808
143.0854797 0.052452322342183166
144.0569    0.03257187023081533
145.0645599 0.0980418919114628
145.1010132 0.0537845675984896
147.0442505 0.014656702613850924
147.0800018 0.016278899375414168
149.0598145 0.03479774498172665
152.0621033 0.09532126226068209
153.0696564 0.18007527361102357
154.0775909 0.08012732732297824
155.0478516 0.013765010638743549
155.0605316 0.0497706632540229
155.0852661 0.3725949022492057
157.0642548 0.04386825474114935
157.1013184 0.016043866273187244
158.0727234 0.0535067145814586
159.0440063 0.08870852778657382
159.0800018 0.14187754641924868
161.0595703 0.05119546420814361
165.0543213 0.012471759185505945
165.0696106 0.15824757037012102
166.077713  0.018283061470643965
167.0485992 0.011995183209103758
167.085556  0.01697828887084899
168.0568085 0.15361494168066311
169.0641632 0.3069358696703046
170.072464  0.017658183299521336
171.0437622 0.053974831034600185
171.0799103 0.0304264000926878
172.0521393 0.012431090846962185
173.0590515 0.010072161470330642
173.0956116 0.04817150022330401
183.0801392 0.27887555762398264
184.0872803 0.013347115571668188
185.0598907 0.035582775529950726
185.0954285 0.014111064586723177
186.0674896 0.011028071085829108
187.0754242 0.07409301580976768
189.0547638 0.029985807669680717
197.0590363 0.038541734757103555
201.0905304 0.038827399011199644
211.075119  0.033688593353016445
215.06987   0.010810049991917217
217.2684479 0.014847060234936961
429.1976929 0.007584554011389546


