PRECURSORMZ: 375.166053172
COMPOUNDNAME: casmi2022challengebonus190
FORMULA: C16H26O7
SMILES: CC1(C2CC(=O)C1(CC2OC3C(C(C(C(O3)CO)O)O)O)C)C
INCHIKEY: YQIHQJXXKNXTBN-VKNJEMGASA-N
PRECURSORTYPE: [M+FA-H]-
PRECURSORINTENSITY: 69522037.39648
IONMODE: negative
CHARGE: -1
PARENTMASS: 330.167852172
NUM PEAKS: 18
59.01249313 1.0
69.28623199 0.037450030518965165
71.01244354 0.7460273598320903
77.39134979 0.040150060301526194
77.70437622 0.036991900234072936
85.02796936 0.1391124936131891
89.02304077 0.857532838438085
92.6780014  0.032716672709159005
99.00753021 0.0415954171039316
101.0231934 0.5295403040607618
113.0229874 0.3020924936004513
119.0338135 0.35516894219444534
143.0333252 0.06695053145272502
161.0441589 0.26631480891473813
179.0554199 0.06810970081144542
188.2532043 0.032229138514145564
216.403595  0.20952501392798464
359.0789795 0.03963894874326509


PRECURSORMZ: 375.166053172
COMPOUNDNAME: casmi2022challengebonus190
FORMULA: C16H26O7
SMILES: CC1(C2CC(=O)C1(CC2OC3C(C(C(C(O3)CO)O)O)O)C)C
INCHIKEY: YQIHQJXXKNXTBN-VKNJEMGASA-N
PRECURSORTYPE: [M+FA-H]-
PRECURSORINTENSITY: 69522037.39648
IONMODE: negative
CHARGE: -1
PARENTMASS: 330.167852172
NUM PEAKS: 18
59.01249313 1.0
69.28623199 0.037450030518965165
71.01244354 0.7460273598320903
77.39134979 0.040150060301526194
77.70437622 0.036991900234072936
85.02796936 0.1391124936131891
89.02304077 0.857532838438085
92.6780014  0.032716672709159005
99.00753021 0.0415954171039316
101.0231934 0.5295403040607618
113.0229874 0.3020924936004513
119.0338135 0.35516894219444534
143.0333252 0.06695053145272502
161.0441589 0.26631480891473813
179.0554199 0.06810970081144542
188.2532043 0.032229138514145564
216.403595  0.20952501392798464
359.0789795 0.03963894874326509


