PRECURSORMZ: 219.06628286400002
COMPOUNDNAME: casmi2022challengebonus235
FORMULA: C12H12O4
SMILES: CC1(C2=C(C=CC1=O)C(=C(C=C2)O)CO)O
INCHIKEY: YFFBGKSSWQKSMK-LBPRGKRZSA-N
PRECURSORTYPE: [M-H]-
PRECURSORINTENSITY: 32881248.8877
IONMODE: negative
CHARGE: -1
PARENTMASS: 220.073558864
NUM PEAKS: 39
51.0094223  0.013249967487107012
51.01239777 0.004328446444682886
52.92105103 0.0009391204416771594
54.76513672 0.003943075969947246
64.46591949 0.0009486564740702791
77.78920746 0.0008484851425055095
110.6800995 0.0009731042101403994
115.8317795 0.0008393744411736612
150.7996674 0.0008062903762376489
159.0439911 0.0018299568246146372
171.0447388 0.007863656326729723
172.0519714 0.005987635781514673
173.0599213 0.01110032377021713
174.0312653 0.028347006974068344
175.0387573 0.027578216680843586
177.0534668 0.001212905404154385
186.0311127 0.0018463245538470766
187.0392151 0.0091167960326245
189.0546722 0.030507677032056986
199.0395355 0.003176512798158834
201.0549164 0.10144037865235596
201.0714264 0.001840436835298484
202.0262146 0.006360574489325821
202.0617676 0.003953490347648362
203.0341644 0.037994565571429995
203.9807281 0.004297789608447617
203.9992065 0.0022067370785714244
204.0418701 1.0
204.0579376 0.022041501857235947
204.0761719 0.005502935104054399
204.0881348 0.01257668748367902
205.0456543 0.005581245885728644
217.0497742 0.02251962090318775
218.9996033 0.0012021338033615164
219.0654602 0.3111826939702065
219.0839844 0.007413979462176911
219.1162262 0.004145662987754407
219.8455353 0.0011304477362989284
220.0691223 0.0016408726013440132


PRECURSORMZ: 219.06628286400002
COMPOUNDNAME: casmi2022challengebonus235
FORMULA: C12H12O4
SMILES: CC1(C2=C(C=CC1=O)C(=C(C=C2)O)CO)O
INCHIKEY: YFFBGKSSWQKSMK-LBPRGKRZSA-N
PRECURSORTYPE: [M-H]-
PRECURSORINTENSITY: 32881248.8877
IONMODE: negative
CHARGE: -1
PARENTMASS: 220.073558864
NUM PEAKS: 39
51.0094223  0.013249967487107012
51.01239777 0.004328446444682886
52.92105103 0.0009391204416771594
54.76513672 0.003943075969947246
64.46591949 0.0009486564740702791
77.78920746 0.0008484851425055095
110.6800995 0.0009731042101403994
115.8317795 0.0008393744411736612
150.7996674 0.0008062903762376489
159.0439911 0.0018299568246146372
171.0447388 0.007863656326729723
172.0519714 0.005987635781514673
173.0599213 0.01110032377021713
174.0312653 0.028347006974068344
175.0387573 0.027578216680843586
177.0534668 0.001212905404154385
186.0311127 0.0018463245538470766
187.0392151 0.0091167960326245
189.0546722 0.030507677032056986
199.0395355 0.003176512798158834
201.0549164 0.10144037865235596
201.0714264 0.001840436835298484
202.0262146 0.006360574489325821
202.0617676 0.003953490347648362
203.0341644 0.037994565571429995
203.9807281 0.004297789608447617
203.9992065 0.0022067370785714244
204.0418701 1.0
204.0579376 0.022041501857235947
204.0761719 0.005502935104054399
204.0881348 0.01257668748367902
205.0456543 0.005581245885728644
217.0497742 0.02251962090318775
218.9996033 0.0012021338033615164
219.0654602 0.3111826939702065
219.0839844 0.007413979462176911
219.1162262 0.004145662987754407
219.8455353 0.0011304477362989284
220.0691223 0.0016408726013440132


