PRECURSORMZ: 377.1594791079999
COMPOUNDNAME: casmi2022challengebonus79
FORMULA: C20H24O7
SMILES: CC=C(C)C(=O)OC(C(C1=C(C=C2C(=C1)C=CC(=O)O2)OC)O)C(C)(C)O
INCHIKEY: GFMYIOGFYYHKLA-MSOLQXFVSA-N
PRECURSORTYPE: [M+H]+
PRECURSORINTENSITY: 184723662.9883
IONMODE: positive
CHARGE: 1
PARENTMASS: 376.1522031079999
NUM PEAKS: 49
51.26041412 0.001501075047297862
51.26301956 0.001505672389610335
51.51269913 0.000874834514720484
51.51488876 0.0010162463996553034
52.71408081 0.0006422879194030959
55.05448914 0.015565041864388578
59.04935074 0.0064614196100886215
67.62122345 0.0006792300504877295
83.04912567 0.06592109661703402
83.05444336 0.0010433316796460853
91.34246826 0.0006378951649730665
94.28504944 0.010624071258297481
94.29283142 0.007433428145168159
96.70337677 0.0008124561719063057
101.0593262 0.0006999323736936676
105.1392059 0.0006213007998139368
160.0517731 0.02175739944671946
161.0590668 0.0009617281592969169
175.0386353 0.015140272456065347
177.0550079 0.005489890342291551
187.0388489 0.0006882141960636452
188.0461884 0.0024203785963539766
189.0184326 0.0054333997530781105
189.0545502 0.004617887326509053
191.0137329 0.001254453414009809
191.0336456 0.04843469655089386
192.0421143 0.0013697166664505555
203.0338135 0.01022106037300122
205.049408  0.16467630596673843
206.0571747 0.15145440290431655
207.0297241 0.005644712189268909
213.0890808 0.0008152602293539187
216.2290344 0.0034621504091135553
217.0857697 0.006507832361555615
219.0650635 0.04471369076146358
227.0698395 0.0008505516390754855
231.1010742 0.008311597098527298
245.0804901 0.013010655163326503
259.0960999 0.019377165568686835
271.0961609 0.002733212644591871
277.1065979 0.03372174747935456
293.0521545 0.0006656444629068029
295.1161499 0.001168471752650786
301.1071777 0.008216478941727733
345.136261  0.0007918111121477485
377.0083923 0.003315904325436103
377.1589966 1.0
377.2483521 0.0074058517616858105
377.2732849 0.00989321933410515


PRECURSORMZ: 377.1594791079999
COMPOUNDNAME: casmi2022challengebonus79
FORMULA: C20H24O7
SMILES: CC=C(C)C(=O)OC(C(C1=C(C=C2C(=C1)C=CC(=O)O2)OC)O)C(C)(C)O
INCHIKEY: GFMYIOGFYYHKLA-MSOLQXFVSA-N
PRECURSORTYPE: [M+H]+
PRECURSORINTENSITY: 184723662.9883
IONMODE: positive
CHARGE: 1
PARENTMASS: 376.1522031079999
NUM PEAKS: 49
51.26041412 0.001501075047297862
51.26301956 0.001505672389610335
51.51269913 0.000874834514720484
51.51488876 0.0010162463996553034
52.71408081 0.0006422879194030959
55.05448914 0.015565041864388578
59.04935074 0.0064614196100886215
67.62122345 0.0006792300504877295
83.04912567 0.06592109661703402
83.05444336 0.0010433316796460853
91.34246826 0.0006378951649730665
94.28504944 0.010624071258297481
94.29283142 0.007433428145168159
96.70337677 0.0008124561719063057
101.0593262 0.0006999323736936676
105.1392059 0.0006213007998139368
160.0517731 0.02175739944671946
161.0590668 0.0009617281592969169
175.0386353 0.015140272456065347
177.0550079 0.005489890342291551
187.0388489 0.0006882141960636452
188.0461884 0.0024203785963539766
189.0184326 0.0054333997530781105
189.0545502 0.004617887326509053
191.0137329 0.001254453414009809
191.0336456 0.04843469655089386
192.0421143 0.0013697166664505555
203.0338135 0.01022106037300122
205.049408  0.16467630596673843
206.0571747 0.15145440290431655
207.0297241 0.005644712189268909
213.0890808 0.0008152602293539187
216.2290344 0.0034621504091135553
217.0857697 0.006507832361555615
219.0650635 0.04471369076146358
227.0698395 0.0008505516390754855
231.1010742 0.008311597098527298
245.0804901 0.013010655163326503
259.0960999 0.019377165568686835
271.0961609 0.002733212644591871
277.1065979 0.03372174747935456
293.0521545 0.0006656444629068029
295.1161499 0.001168471752650786
301.1071777 0.008216478941727733
345.136261  0.0007918111121477485
377.0083923 0.003315904325436103
377.1589966 1.0
377.2483521 0.0074058517616858105
377.2732849 0.00989321933410515


