PRECURSORMZ: 434.27484811199986
COMPOUNDNAME: casmi2022challengebonus7
FORMULA: C21H36O8
SMILES: CC(=CCCC(=CCCC(C)(CC(=O)O)OC1C(C(C(C(O1)CO)O)O)O)C)C
INCHIKEY: AJXDSAZVECQTSV-JCICCBKCSA-N
PRECURSORTYPE: [M+NH4]+
PRECURSORINTENSITY: 27076050.03125
IONMODE: positive
CHARGE: 1
PARENTMASS: 416.2410251119999
NUM PEAKS: 76
55.05452347 0.07964876169190538
55.52996445 0.009484092666942107
57.03368378 0.00875548638907993
57.0701828  0.0645350715676223
61.02850723 0.009329550854643428
61.05811691 0.009483208692071646
67.05442047 0.11519358569226719
69.03362274 0.05582335242031023
69.06997681 0.2620924203492759
71.08544159 0.05142330045809395
73.02853394 0.009747163842570038
73.06455994 0.006938166874201004
79.05434418 0.05828542134459474
81.03363037 0.012444313523240125
81.0699234  1.0
81.07453918 0.01887590496657271
81.07795715 0.012200008543099324
83.08539581 0.08245720641429147
85.02843475 0.21396601697085332
85.06485748 0.10210264359808902
88.13996124 0.00867306256399705
91.11684418 0.00811527124329764
93.06977844 0.1594383492869593
95.04871368 0.008129656965182192
95.07532501 0.009177941856167153
95.08557129 0.8765585817861532
95.10031891 0.011826200926697485
96.92240906 0.0072149838272889165
97.02831268 0.03922403544525958
97.0647583  0.048451004543196154
97.10112    0.05786290804737575
105.069931  0.07427157623657547
107.0855789 0.3613695167578961
109.0284576 0.01764997607891567
109.0645218 0.010882705505359396
109.1011734 0.4529022052868708
111.0806274 0.047850186333514136
111.1167068 0.13166501037780143
119.0856628 0.0781371201788125
121.1011734 0.6575131524275986
121.1088943 0.008273023581150047
123.0802002 0.039547401205900855
123.1168213 0.18967986296551653
125.0596542 0.01570321175790748
125.0960693 0.010501844519377222
127.0386276 0.038007391153473354
127.0751343 0.02942208994506712
131.0857697 0.01925065820095237
133.1009216 0.05492599146316426
135.0798035 0.007915815119036555
135.1167297 0.18840490556509806
137.0960541 0.018510733740170048
137.13237   0.3434926190551336
139.0742798 0.008223815223034132
139.1110992 0.009147685893852743
145.0493317 0.01656687999062611
145.1010132 0.11832832962461284
147.1163483 0.018537204688589624
149.0963745 0.04116668302348517
149.1321411 0.04479053768692325
153.0908356 0.013205163594757185
159.1168823 0.12076469909256465
161.1318665 0.05951018981664203
163.1117706 0.06936558306845184
167.1065063 0.01754537090309499
173.13237   0.018023638802240005
175.1481934 0.1361509610569707
177.1267242 0.01335154373253352
177.163681  0.8389034638332238
177.1819    0.013403750996050937
181.1222687 0.011248500788787875
191.1787109 0.0352660802235449
191.9284058 0.007841242210954884
201.1636047 0.20434792299180024
219.1743469 0.06674437578964185
304.2558899 0.01889179490737743


