PRECURSORMZ: 373.19854406
COMPOUNDNAME: casmi2022challengebonus120
FORMULA: C20H30O5
SMILES: CC=CC=CC(=O)OC1C(C(OC(=O)C1(C)O)C(C)CC(=CC)C)C
INCHIKEY: WUZMQUYIFZVHQK-UHFFFAOYSA-N
PRECURSORTYPE: [M+Na]+
PRECURSORINTENSITY: 35304309.62891
IONMODE: positive
CHARGE: 1
PARENTMASS: 350.20932606
NUM PEAKS: 19
68.48022461 0.00825662684649837
70.55436707 0.008252314801162508
95.04951477 0.008903535784407108
95.08512878 0.033286246873394675
111.0053253 0.08200880202186653
125.0208969 0.06494149466036854
130.525528  0.009200920233940755
135.0415497 0.24010839684841723
137.1326752 0.015859155964992006
215.3548126 0.009774479859973062
216.2329102 0.05818678737825579
219.0633087 0.012559369223164845
243.1340332 0.009004965227666566
261.1460571 0.08103464071291812
265.5293274 0.010037884777897322
279.1553345 0.08929102411892297
311.1990967 0.012187084200565291
355.1893311 0.01785961324607262
373.1980896 1.0


