PRECURSORMZ: 1106.5741689480008
COMPOUNDNAME: casmi2022challengebonus196
FORMULA: C53H84O23
SMILES: CC1C(C(C(C(O1)OC2C(C(COC2OC3CCC4(C(C3(C)C)CCC5(C4CC=C6C5(CCC7(C6CC(CC7)(C)C(=O)O)C(=O)OC8C(C(C(C(O8)COC9C(C(C(C(O9)CO)O)O)O)O)O)O)C)C)C)O)O)O)O)O
INCHIKEY: QLZQRHCCZJLVSJ-DGYDAYBGSA-N
PRECURSORTYPE: [M+NH4]+
PRECURSORINTENSITY: 686545.546875
IONMODE: positive
CHARGE: 1
PARENTMASS: 1088.5403459480008
NUM PEAKS: 24
83.04917145 0.10197225098593081
85.02845001 1.0
95.08530426 0.09472199072066
97.02865601 0.09442916642810115
109.1017227 0.09930064312250009
111.0438156 0.05822418317859867
121.1010818 0.09884106434858972
127.0388641 0.05535667101062876
129.0545502 0.19089877345594436
139.1454163 0.0497003638936216
144.7962494 0.04682776379071128
147.1175079 0.052292060143040484
149.1323853 0.05274839900274218
171.3595428 0.050948492643316315
173.1321564 0.07606573709750485
187.1479645 0.1991809346406699
191.1798553 0.19453221733069892
193.4720612 0.0451779280002847
220.5479431 0.04383505644729997
221.0523071 0.05641763711110026
233.1567383 0.05107381007967123
256.418335  0.0529412420821011
802.3939209 0.05417644409136329
1035.696655 0.05033781818967024


