PRECURSORMZ: 1341.5968416719998
COMPOUNDNAME: casmi2022challengebonus89
FORMULA: C60H96O30
SMILES: CC1(CCC2(CCC3(C(=CCC4C3(CCC5C4(CCC(C5(C)C(=O)OC6C(C(C(C(O6)CO)O)O)O)O)C)C)C2C1)C)C(=O)OC7C(C(C(C(O7)COC8C(C(C(C(O8)CO)O)O)OC9C(C(C(C(O9)CO)O)O)O)O)OC1C(C(C(C(O1)CO)O)O)O)O)C
INCHIKEY: SHDCOAGAKQAHTD-VONUOISVSA-N
PRECURSORTYPE: [M+FA-H]-
PRECURSORINTENSITY: 8022396.875
IONMODE: negative
CHARGE: -1
PARENTMASS: 1296.5986406719996
NUM PEAKS: 41
95.01233673 0.02046008501214944
97.02796173 0.02183844908432254
99.00740814 0.02420583083613045
101.0230331 0.147346095003379
105.9084091 0.0035163864697926824
109.028595  0.005770242220830814
113.0230865 0.14790262745679836
119.0336838 0.03385901004294425
121.3285828 0.01071994806652614
121.3367844 0.004669687795136386
125.0128632 0.004435913232417945
125.0229492 0.08488352818379913
126.1616745 0.0033544494819376766
129.0180359 0.005108359477815104
131.0335693 0.08431558076756755
137.0230865 0.004343801484334196
137.827774  0.003360011625492483
143.0336456 0.02603420294338436
159.028656  0.01754901355416048
161.0442047 0.13315095620679132
179.0548706 0.01935223764276528
203.0545197 0.013692717727582036
207.1473083 0.004044837867893794
221.0659943 0.178700328750929
304.289032  0.016726882118958744
365.1070251 0.01380345785768307
383.1194763 0.06599202067042818
399.8068542 0.003760722021187575
423.3257446 0.03640682462381665
439.3212585 0.05873020304681372
467.315155  0.038698340017241345
485.3266907 1.0
485.4952087 0.00442997083385594
499.3430786 0.014204170767083161
527.3375854 0.01889249837016854
539.3320312 0.005089769029891085
551.3369141 0.0040477761604914815
569.348999  0.06708864686080186
593.3470459 0.007648181847977324
647.3787231 0.09873552339937212
839.5531006 0.004697958749439563


PRECURSORMZ: 1341.5968416719998
COMPOUNDNAME: casmi2022challengebonus89
FORMULA: C60H96O30
SMILES: CC1(CCC2(CCC3(C(=CCC4C3(CCC5C4(CCC(C5(C)C(=O)OC6C(C(C(C(O6)CO)O)O)O)O)C)C)C2C1)C)C(=O)OC7C(C(C(C(O7)COC8C(C(C(C(O8)CO)O)O)OC9C(C(C(C(O9)CO)O)O)O)O)OC1C(C(C(C(O1)CO)O)O)O)O)C
INCHIKEY: SHDCOAGAKQAHTD-VONUOISVSA-N
PRECURSORTYPE: [M+FA-H]-
PRECURSORINTENSITY: 8022396.875
IONMODE: negative
CHARGE: -1
PARENTMASS: 1296.5986406719996
NUM PEAKS: 41
95.01233673 0.02046008501214944
97.02796173 0.02183844908432254
99.00740814 0.02420583083613045
101.0230331 0.147346095003379
105.9084091 0.0035163864697926824
109.028595  0.005770242220830814
113.0230865 0.14790262745679836
119.0336838 0.03385901004294425
121.3285828 0.01071994806652614
121.3367844 0.004669687795136386
125.0128632 0.004435913232417945
125.0229492 0.08488352818379913
126.1616745 0.0033544494819376766
129.0180359 0.005108359477815104
131.0335693 0.08431558076756755
137.0230865 0.004343801484334196
137.827774  0.003360011625492483
143.0336456 0.02603420294338436
159.028656  0.01754901355416048
161.0442047 0.13315095620679132
179.0548706 0.01935223764276528
203.0545197 0.013692717727582036
207.1473083 0.004044837867893794
221.0659943 0.178700328750929
304.289032  0.016726882118958744
365.1070251 0.01380345785768307
383.1194763 0.06599202067042818
399.8068542 0.003760722021187575
423.3257446 0.03640682462381665
439.3212585 0.05873020304681372
467.315155  0.038698340017241345
485.3266907 1.0
485.4952087 0.00442997083385594
499.3430786 0.014204170767083161
527.3375854 0.01889249837016854
539.3320312 0.005089769029891085
551.3369141 0.0040477761604914815
569.348999  0.06708864686080186
593.3470459 0.007648181847977324
647.3787231 0.09873552339937212
839.5531006 0.004697958749439563


