PRECURSORMZ: 1249.622268572
COMPOUNDNAME: casmi2022challengebonus54
FORMULA: C59H96O25
SMILES: CC1C(C(C(C(O1)OC2C(OC(C(C2O)O)OC(=O)C34CCC(CC3C5=CCC6C7(CCC(C(C7CCC6(C5(CC4)C)C)(C)C)OC8C(C(C(CO8)O)O)OC9C(C(C(C(O9)CO)O)O)OC1C(C(C(C(O1)C)O)O)O)C)(C)C)CO)O)O)O
INCHIKEY: QMTVSBYGSSFPPX-XQDZFCBSSA-N
PRECURSORTYPE: [M+FA-H]-
PRECURSORINTENSITY: 5755530.0
IONMODE: negative
CHARGE: -1
PARENTMASS: 1204.6240675719998
NUM PEAKS: 13
87.00734711 0.4627926765866472
97.02826691 0.2567607418700597
101.0228348 1.0
219.3782043 0.10982541824025743
221.374176  0.14473147078145274
337.4330444 0.12364009497452629
455.3507385 0.5274984408134152
459.643219  0.10523828249341492
847.0609131 0.10995219197068636
928.0751953 0.16846663264061787
948.3726196 0.12285742623114039
1013.703491 0.1376898760445707
1149.698975 0.12192641727703671


PRECURSORMZ: 1249.622268572
COMPOUNDNAME: casmi2022challengebonus54
FORMULA: C59H96O25
SMILES: CC1C(C(C(C(O1)OC2C(OC(C(C2O)O)OC(=O)C34CCC(CC3C5=CCC6C7(CCC(C(C7CCC6(C5(CC4)C)C)(C)C)OC8C(C(C(CO8)O)O)OC9C(C(C(C(O9)CO)O)O)OC1C(C(C(C(O1)C)O)O)O)C)(C)C)CO)O)O)O
INCHIKEY: QMTVSBYGSSFPPX-XQDZFCBSSA-N
PRECURSORTYPE: [M+FA-H]-
PRECURSORINTENSITY: 5755530.0
IONMODE: negative
CHARGE: -1
PARENTMASS: 1204.6240675719998
NUM PEAKS: 13
87.00734711 0.4627926765866472
97.02826691 0.2567607418700597
101.0228348 1.0
219.3782043 0.10982541824025743
221.374176  0.14473147078145274
337.4330444 0.12364009497452629
455.3507385 0.5274984408134152
459.643219  0.10523828249341492
847.0609131 0.10995219197068636
928.0751953 0.16846663264061787
948.3726196 0.12285742623114039
1013.703491 0.1376898760445707
1149.698975 0.12192641727703671


