PRECURSORMZ: 271.06009942
COMPOUNDNAME: casmi2022challengebonus216
FORMULA: C15H10O5
SMILES: COC(=O)C1=C2C(=CC=C1)OC3=CC=CC(=C3C2=O)O
INCHIKEY: HXAFEJLAMMEJCI-UHFFFAOYSA-N
PRECURSORTYPE: [M+H]+
PRECURSORINTENSITY: 25551413.5293
IONMODE: positive
CHARGE: 1
PARENTMASS: 270.05282342
NUM PEAKS: 23
59.75581741 0.010526015661940351
59.75967789 0.006672076985887159
75.02398682 0.0007151278595328858
75.71272278 0.0004174126267018663
81.80805206 0.00039927950826925725
83.37368011 0.0004478698699683767
83.85257721 0.00036890650091713113
127.0558167 0.0005907044203042971
134.1055145 0.0005034144939265157
155.0486298 0.006317884078312717
183.0445251 0.005548097728326269
211.03862   0.015798113156834773
216.7603455 0.002574195858670832
238.0244598 0.0007774361602241294
238.9615631 0.005518976282616816
238.9745941 0.006324979488818177
238.9882507 0.004839607715474905
239.0336609 1.0
239.0780792 0.006151426889499029
239.090271  0.007411158991153423
239.1104889 0.0019051566815959443
239.1201019 0.0020839458950149907
280.0679321 0.0005265139353536143


