PRECURSORMZ: 273.112134992
COMPOUNDNAME: casmi2022challengebonus202
FORMULA: C16H16O4
SMILES: COC1=CC(=CC2=C1C3=CC(=C(C=C3CC2)O)OC)O
INCHIKEY: BHEGXSNCDUBUFA-UHFFFAOYSA-N
PRECURSORTYPE: [M+H]+
PRECURSORINTENSITY: 9745002.510742
IONMODE: positive
CHARGE: 1
PARENTMASS: 272.104858992
NUM PEAKS: 36
60.26882935 0.006685778040472106
60.27243423 0.008012520038293336
80.05812073 0.002436615564148291
147.0438538 0.09860058809716678
153.0700073 0.0029326308961474534
181.0641785 0.029278101617731103
182.0723877 0.004979444936451532
183.0795135 0.004078612522109036
184.0836639 0.0025555402371341476
185.0952148 0.012284404467079823
195.0804291 0.010738374180942485
198.0668182 0.019496527713135935
209.059906  0.015562616382023154
210.0674744 0.004963476122698403
211.0751038 0.004490340108961731
212.0800018 0.004525963434246228
213.0909119 0.18562981142594884
214.0911865 0.015997871109680904
217.6944275 0.0033232233023522484
223.0752106 0.012426112846683152
225.0535126 0.00460363919303703
226.059021  0.06729339278192337
227.1004333 0.011498759049544446
230.0868225 0.019610893546587634
241.0856781 1.0
241.1425323 0.006205533384378094
242.0931854 0.04359378669007466
243.0962067 0.0035644119029094963
244.10495   0.0028323388107263092
245.1080017 0.041444749733672216
245.1367645 0.0029282146395653006
255.1021576 0.004179231737647478
257.0783386 0.0026332605829015882
258.0856323 0.06329971582750346
262.7181702 0.0025642990744922955
273.1087646 0.4630830286527986


PRECURSORMZ: 273.112134992
COMPOUNDNAME: casmi2022challengebonus202
FORMULA: C16H16O4
SMILES: COC1=CC(=CC2=C1C3=CC(=C(C=C3CC2)O)OC)O
INCHIKEY: BHEGXSNCDUBUFA-UHFFFAOYSA-N
PRECURSORTYPE: [M+H]+
PRECURSORINTENSITY: 9745002.510742
IONMODE: positive
CHARGE: 1
PARENTMASS: 272.104858992
NUM PEAKS: 36
60.26882935 0.006685778040472106
60.27243423 0.008012520038293336
80.05812073 0.002436615564148291
147.0438538 0.09860058809716678
153.0700073 0.0029326308961474534
181.0641785 0.029278101617731103
182.0723877 0.004979444936451532
183.0795135 0.004078612522109036
184.0836639 0.0025555402371341476
185.0952148 0.012284404467079823
195.0804291 0.010738374180942485
198.0668182 0.019496527713135935
209.059906  0.015562616382023154
210.0674744 0.004963476122698403
211.0751038 0.004490340108961731
212.0800018 0.004525963434246228
213.0909119 0.18562981142594884
214.0911865 0.015997871109680904
217.6944275 0.0033232233023522484
223.0752106 0.012426112846683152
225.0535126 0.00460363919303703
226.059021  0.06729339278192337
227.1004333 0.011498759049544446
230.0868225 0.019610893546587634
241.0856781 1.0
241.1425323 0.006205533384378094
242.0931854 0.04359378669007466
243.0962067 0.0035644119029094963
244.10495   0.0028323388107263092
245.1080017 0.041444749733672216
245.1367645 0.0029282146395653006
255.1021576 0.004179231737647478
257.0783386 0.0026332605829015882
258.0856323 0.06329971582750346
262.7181702 0.0025642990744922955
273.1087646 0.4630830286527986


