PRECURSORMZ: 259.096484928
COMPOUNDNAME: casmi2022challengebonus192
FORMULA: C15H14O4
SMILES: CC1(CCC2=C(O1)C(=O)C3=C(C2=O)C=CC=C3O)C
INCHIKEY: MYROJYNCTNKRCD-UHFFFAOYSA-N
PRECURSORTYPE: [M+H]+
PRECURSORINTENSITY: 11284364.50488
IONMODE: positive
CHARGE: 1
PARENTMASS: 258.089208928
NUM PEAKS: 49
50.75639725 0.009045956140502761
50.75935745 0.006104092259941331
65.24423981 0.0016126513429567438
67.67974854 0.0017194506456985933
71.04884338 0.0033086652424084537
81.06999207 0.006345883767718491
103.0541306 0.006620302574261811
103.9442368 0.0014985965975738385
119.0490112 0.008683340417094995
121.0281982 0.039910007889083006
129.42659   0.0018569866861526988
134.6864777 0.001457728254076122
147.0438385 0.08036903418794099
149.0232697 0.01153878673237212
161.0601349 0.006351225074197921
167.0856476 0.0018836538725079234
169.0640411 0.003811437420142493
171.0439301 0.02657233703074961
171.0801544 0.007952640845979077
173.0597687 0.014746743016596543
175.0388031 0.2848872365591944
185.0960236 0.006819068372302451
189.0545654 0.02848920595384774
195.0803223 0.027349804412841867
197.05896   0.011384307018103935
198.0673065 0.002558868858500385
199.039032  0.08984665152670863
199.0741272 0.021155058222048592
201.0542908 0.011118241929048533
202.9882812 0.010265453866179275
203.0336761 1.0
203.0918732 0.004704796129804177
213.0552826 0.0027021273092445786
213.0905304 0.03296310455186854
215.0688477 0.0034480471325052113
216.0411835 0.002384887652521664
216.077774  0.002624972485085321
217.0254364 0.0025318836520710777
217.0494995 0.1027560449463793
217.0865936 0.005984000335933254
221.0440063 0.014629013155797194
221.1066132 0.002386192575381849
223.0750732 0.025245135856302645
226.0623016 0.0037163178761235325
229.0855255 0.002557763592414726
230.0582428 0.0019639201231282325
241.0857391 0.09048200490759734
244.0720825 0.00758902358695968
259.0963135 0.08377952048327106


