PRECURSORMZ: 1381.6281451039997
COMPOUNDNAME: casmi2022challengebonus86
FORMULA: C64H102O32
SMILES: CC1C(C(C(C(O1)OC2C(C(COC2OC(=O)C34CCC(CC3C5=CCC6C(C5(CC4O)C)(CCC7C6(CC(C(C7(C)CO)OC8C(C(C(C(O8)CO)O)O)OC9C(C(C(C(O9)CO)O)O)O)O)C)C)(C)C)O)O)O)OC1C(C(C(CO1)O)O)O)OC(=O)CC(C)(CC(=O)O)O
INCHIKEY: OEEQFNDQHVCCFW-JBRULZQPSA-N
PRECURSORTYPE: [M-H]-
PRECURSORINTENSITY: 7223492.34375
IONMODE: negative
CHARGE: -1
PARENTMASS: 1382.6354211039998
NUM PEAKS: 75
202.3521881 0.001564937596688373
205.0705109 0.019027120921356555
206.8527374 0.010494005655433418
206.877533  0.006150685734684428
221.06604   0.018032873377709615
221.2961273 0.0012425506668821244
264.0813904 0.0010873416769711715
277.0926208 0.010124676980539206
302.8293762 0.0008782543248809629
304.2556152 0.0008721589217272492
304.2995605 0.0011902412952026508
319.1014099 0.004657913441490486
323.0986328 0.002193678939064244
337.1138306 0.032179439568763166
379.1229858 0.0015956016534380913
391.1258545 0.0009699549035725852
409.1356201 0.007742153353781753
409.311615  0.0038854235251844773
421.3128357 0.002105954523343049
441.2727966 0.001835065652743541
441.3370667 0.02920916605776411
455.3173523 0.0183956237303378
485.3272095 0.03262324589224967
503.1605225 0.00147911286494006
503.3373718 0.2685082288831255
504.34021   0.0017154330284136683
545.3515625 0.0020058389824100763
555.7940063 0.0011251980815220155
557.3477783 0.006422800774443758
575.3638306 0.0018190811242214746
585.3760376 0.0011085436974570624
599.3568726 0.0015796505811004676
603.2781372 0.001321236789825573
603.3903198 0.04586846232699807
619.3795776 0.003553201940860172
629.3681641 0.00492806878524609
647.3799438 0.16978575997730333
648.387085  0.0035784437956175074
665.1313477 0.0020512858633569132
665.3900757 0.37835309924710203
666.3934937 0.006873982095588334
689.3864746 0.0023413919663002546
707.4003906 0.009743751555712577
719.399353  0.001760435360309724
737.4111328 0.012134640901389904
765.4420776 0.05248513541725215
765.5626831 0.0011773495818311506
766.4475098 0.0014162391802699512
781.4483643 0.004117353505405181
809.4326172 0.17694686890261038
809.6118774 0.0021417283849629173
810.4356079 0.004345148301228779
827.0661011 0.008232708840194527
827.4429321 1.0
827.9265747 0.004467824183736012
828.4431152 0.024136495879536323
841.4501343 0.0014770207033560567
869.4546509 0.03932989939056215
869.6455078 0.001277320738418138
881.4517822 0.006123361650647845
899.4653931 0.024326304523543785
911.447876  0.0034642082811416858
943.4829712 0.001495625373872861
1015.510437 0.0011760777240694498
1075.53833  0.0071274386212840215
1087.527222 0.0023191682775819474
1105.549683 0.015323778916180213
1147.540649 0.004919905058039789
1219.572388 0.006012586551149153
1237.255249 0.0015399172846023933
1237.582886 0.06077176726272205
1238.584106 0.0021181551574046566
1279.613281 0.0011906640977335443
1381.625244 0.005608562140178736
1939.122192 0.0011771250071930797


PRECURSORMZ: 1381.6281451039997
COMPOUNDNAME: casmi2022challengebonus86
FORMULA: C64H102O32
SMILES: CC1C(C(C(C(O1)OC2C(C(COC2OC(=O)C34CCC(CC3C5=CCC6C(C5(CC4O)C)(CCC7C6(CC(C(C7(C)CO)OC8C(C(C(C(O8)CO)O)O)OC9C(C(C(C(O9)CO)O)O)O)O)C)C)(C)C)O)O)O)OC1C(C(C(CO1)O)O)O)OC(=O)CC(C)(CC(=O)O)O
INCHIKEY: OEEQFNDQHVCCFW-JBRULZQPSA-N
PRECURSORTYPE: [M-H]-
PRECURSORINTENSITY: 7223492.34375
IONMODE: negative
CHARGE: -1
PARENTMASS: 1382.6354211039998
NUM PEAKS: 75
202.3521881 0.001564937596688373
205.0705109 0.019027120921356555
206.8527374 0.010494005655433418
206.877533  0.006150685734684428
221.06604   0.018032873377709615
221.2961273 0.0012425506668821244
264.0813904 0.0010873416769711715
277.0926208 0.010124676980539206
302.8293762 0.0008782543248809629
304.2556152 0.0008721589217272492
304.2995605 0.0011902412952026508
319.1014099 0.004657913441490486
323.0986328 0.002193678939064244
337.1138306 0.032179439568763166
379.1229858 0.0015956016534380913
391.1258545 0.0009699549035725852
409.1356201 0.007742153353781753
409.311615  0.0038854235251844773
421.3128357 0.002105954523343049
441.2727966 0.001835065652743541
441.3370667 0.02920916605776411
455.3173523 0.0183956237303378
485.3272095 0.03262324589224967
503.1605225 0.00147911286494006
503.3373718 0.2685082288831255
504.34021   0.0017154330284136683
545.3515625 0.0020058389824100763
555.7940063 0.0011251980815220155
557.3477783 0.006422800774443758
575.3638306 0.0018190811242214746
585.3760376 0.0011085436974570624
599.3568726 0.0015796505811004676
603.2781372 0.001321236789825573
603.3903198 0.04586846232699807
619.3795776 0.003553201940860172
629.3681641 0.00492806878524609
647.3799438 0.16978575997730333
648.387085  0.0035784437956175074
665.1313477 0.0020512858633569132
665.3900757 0.37835309924710203
666.3934937 0.006873982095588334
689.3864746 0.0023413919663002546
707.4003906 0.009743751555712577
719.399353  0.001760435360309724
737.4111328 0.012134640901389904
765.4420776 0.05248513541725215
765.5626831 0.0011773495818311506
766.4475098 0.0014162391802699512
781.4483643 0.004117353505405181
809.4326172 0.17694686890261038
809.6118774 0.0021417283849629173
810.4356079 0.004345148301228779
827.0661011 0.008232708840194527
827.4429321 1.0
827.9265747 0.004467824183736012
828.4431152 0.024136495879536323
841.4501343 0.0014770207033560567
869.4546509 0.03932989939056215
869.6455078 0.001277320738418138
881.4517822 0.006123361650647845
899.4653931 0.024326304523543785
911.447876  0.0034642082811416858
943.4829712 0.001495625373872861
1015.510437 0.0011760777240694498
1075.53833  0.0071274386212840215
1087.527222 0.0023191682775819474
1105.549683 0.015323778916180213
1147.540649 0.004919905058039789
1219.572388 0.006012586551149153
1237.255249 0.0015399172846023933
1237.582886 0.06077176726272205
1238.584106 0.0021181551574046566
1279.613281 0.0011906640977335443
1381.625244 0.005608562140178736
1939.122192 0.0011771250071930797


