PRECURSORMZ: 352.1026974079999
COMPOUNDNAME: casmi2022challengebonus121
FORMULA: C16H14O8
SMILES: COC1=C(C=CC(=C1)C(=O)OC2=CC(=CC(=C2CC(=O)O)O)O)O
INCHIKEY: MVLIBLLSHYGYKV-UHFFFAOYSA-N
PRECURSORTYPE: [M+NH4]+
PRECURSORINTENSITY: 8598410.706055
IONMODE: positive
CHARGE: 1
PARENTMASS: 334.06887440799994
NUM PEAKS: 16
58.92031097 0.002403877688338242
80.74211121 0.002456825218836649
93.03344727 0.019458470628697114
111.0442581 0.021647638906208258
114.8056259 0.002357319806347718
125.0597687 0.09779129948172431
131.134491  0.002223430391365072
139.0389252 0.06147651115647927
151.0097809 0.01001871837354347
151.0389252 1.0
151.0753784 0.004022969219501621
167.033844  0.04074929832221401
169.0494843 0.2672137640720591
213.2263489 0.0019747943400043764
216.7516479 0.004068950981976794
216.7738037 0.008255990361899815


