PRECURSORMZ: 944.5577310360003
COMPOUNDNAME: casmi2022challengebonus111
FORMULA: C48H78O17
SMILES: CC1C(C(C(C(O1)OC2C(C(C(OC2OC3C(C(C(OC3OC4CCC5(C(C4(C)C)CCC6(C5CC=C7C6(CCC8(C7CC(CC8O)(C)C)C)C)C)C)C(=O)O)O)O)CO)O)O)O)O)O
INCHIKEY: ISTWCKNDZOSMPU-CIORFEAFSA-N
PRECURSORTYPE: [M+NH4]+
PRECURSORINTENSITY: 2095523.875
IONMODE: positive
CHARGE: 1
PARENTMASS: 926.5239080360003
NUM PEAKS: 54
67.05427551 0.06239721504023057
69.06996918 0.056621775427190435
71.04917908 0.6616952390475948
73.02857208 0.033798023700623965
74.02292633 0.028176052189468993
81.06977844 0.1882725531834619
83.04914093 0.19451992479946062
83.08531952 0.06060549301965664
85.02297211 0.05348710063516827
85.02841949 1.0
91.03883362 0.06826122218360699
93.07003784 0.06374363398109842
94.77442169 0.032603617760652105
95.08563232 0.5608688490446408
95.71472931 0.02739555442300069
97.02812195 0.11630241469312284
100.7474899 0.028986177269106534
103.0390472 0.029551962327339518
105.069725  0.0581192986497587
107.0854111 0.3004244063724758
109.1011429 0.3271789092486296
111.0438766 0.06847297292737639
113.4498596 0.0320865066932345
119.0857773 0.11454683055615456
121.1011353 0.3454742716673164
123.116806  0.21484649317210636
129.0543823 0.18796621128971255
133.1007843 0.1386916682796113
135.1164246 0.22251537767596716
137.1326294 0.2454135063432434
141.0180206 0.31937849435121746
147.1172333 0.13201387817426735
149.1323395 0.28175515776745563
159.0289764 0.03797200101960594
159.1172638 0.06136578424537044
161.1322479 0.2024384501866977
163.1477661 0.13473920756005292
173.1322174 0.03894632820698163
175.1478424 0.13600773354543427
177.1633453 0.12135858964326982
182.1007996 0.037124802497360124
187.1482697 0.04223621377124487
189.16362   0.11298425530883723
191.1796112 0.12931531191077036
201.1631012 0.05700875177104426
203.1795044 0.12879669014561898
205.1945038 0.04511784285860246
215.1794128 0.0656078311503112
217.1945953 0.052876525689683755
229.1946716 0.17834407896976856
257.2245178 0.03405188610228635
407.3659668 0.03484647476766696
651.2098389 0.03800450402643162
952.4595337 0.03822233206945958


