PRECURSORMZ: 1363.617577116
COMPOUNDNAME: casmi2022challengebonus103
FORMULA: C63H98O29
SMILES: CC1C2C(C(C(O1)OC3C(C(COC3OC(=O)C45CCC(CC4C6=CCC7C(C6(CC5)C)(CCC8C7(CC(C(C8(C)CO)OC9C(C(C(C(O9)CO)O)O)OC1C(C(C(CO1)OC(=O)CC(CC(=O)O2)(C)O)O)O)O)C)C)(C)C)O)O)O)OC1C(C(C(CO1)O)O)O
INCHIKEY: MCPFEAJYKIXPQF-FJXGNUQDSA-N
PRECURSORTYPE: [M+FA-H]-
PRECURSORINTENSITY: 8128385.5625
IONMODE: negative
CHARGE: -1
PARENTMASS: 1318.6193761159998
NUM PEAKS: 67
99.00739288 0.006837660457565007
99.04354095 0.005280073161602408
101.0231094 0.04095887938324726
108.0198517 0.0037576389369046418
109.0276947 0.01204639823127696
113.0230331 0.1741964689363196
115.0384827 0.034783609992713425
119.7792206 0.004071960996213108
121.8324432 0.007757537383587654
121.841713  0.004583553697936889
125.0231018 0.11396853741948866
127.0388641 0.05050502414675269
131.0231781 0.004411062646595787
131.0337677 0.1422131908284889
134.6127014 0.003997956301823771
143.033844  0.0748900498359191
145.0494232 0.08852297265672784
149.0440521 0.034195415175223516
156.2284393 0.0034024061404687024
157.8420105 0.005053231556189068
157.8542023 0.003523561449895488
158.6427917 0.003241584163599589
161.0446777 0.015080175595823782
164.5060883 0.004242437602051942
190.8513489 0.006167292635107464
191.05513   0.06232449725290798
195.3527222 0.008791282005084647
195.3728485 0.007428443139450156
205.0708466 0.10291706335065447
277.0928345 0.03945056165134004
293.0863953 0.015480054662610297
304.2728577 0.007259267945185808
304.307312  0.003948460278857763
337.1135254 0.04167192660770037
380.8119507 0.0036534021857066116
439.3209839 0.04477384358861167
455.3171387 0.008213126173431127
467.3145447 0.004556134302350319
469.3329163 0.014172654600381881
487.3424072 0.7577342474350723
488.3482056 0.007442912409516161
529.3520508 0.018525595424881792
541.3527222 0.02859404003361398
559.3658447 0.014725312405261226
583.3615723 0.034851645728843667
613.3822632 0.004048567582984518
631.3847046 0.6635628161283288
632.3842163 0.0055496722869474565
649.2609253 0.005212340755756128
649.3949585 0.4943535424988166
673.394043  0.037204567938005605
691.4085693 0.06241944212491424
703.4086304 0.00689825379819378
721.4177856 0.007732250441449443
745.4223022 0.005617377268411899
763.4269409 0.5948339777786051
763.5889893 0.008704420677385555
764.4347534 0.01292563471654159
781.4376831 1.0
782.4440308 0.02511081943388098
802.668396  0.004397213333767691
823.4465942 0.07434213395597207
845.4619751 0.004800778071264832
853.4562988 0.029784680374646974
1059.540283 0.024296167367844398
1101.541016 0.004276823206146253
1191.579712 0.020939612508443384


PRECURSORMZ: 1363.617577116
COMPOUNDNAME: casmi2022challengebonus103
FORMULA: C63H98O29
SMILES: CC1C2C(C(C(O1)OC3C(C(COC3OC(=O)C45CCC(CC4C6=CCC7C(C6(CC5)C)(CCC8C7(CC(C(C8(C)CO)OC9C(C(C(C(O9)CO)O)O)OC1C(C(C(CO1)OC(=O)CC(CC(=O)O2)(C)O)O)O)O)C)C)(C)C)O)O)O)OC1C(C(C(CO1)O)O)O
INCHIKEY: MCPFEAJYKIXPQF-FJXGNUQDSA-N
PRECURSORTYPE: [M+FA-H]-
PRECURSORINTENSITY: 8128385.5625
IONMODE: negative
CHARGE: -1
PARENTMASS: 1318.6193761159998
NUM PEAKS: 67
99.00739288 0.006837660457565007
99.04354095 0.005280073161602408
101.0231094 0.04095887938324726
108.0198517 0.0037576389369046418
109.0276947 0.01204639823127696
113.0230331 0.1741964689363196
115.0384827 0.034783609992713425
119.7792206 0.004071960996213108
121.8324432 0.007757537383587654
121.841713  0.004583553697936889
125.0231018 0.11396853741948866
127.0388641 0.05050502414675269
131.0231781 0.004411062646595787
131.0337677 0.1422131908284889
134.6127014 0.003997956301823771
143.033844  0.0748900498359191
145.0494232 0.08852297265672784
149.0440521 0.034195415175223516
156.2284393 0.0034024061404687024
157.8420105 0.005053231556189068
157.8542023 0.003523561449895488
158.6427917 0.003241584163599589
161.0446777 0.015080175595823782
164.5060883 0.004242437602051942
190.8513489 0.006167292635107464
191.05513   0.06232449725290798
195.3527222 0.008791282005084647
195.3728485 0.007428443139450156
205.0708466 0.10291706335065447
277.0928345 0.03945056165134004
293.0863953 0.015480054662610297
304.2728577 0.007259267945185808
304.307312  0.003948460278857763
337.1135254 0.04167192660770037
380.8119507 0.0036534021857066116
439.3209839 0.04477384358861167
455.3171387 0.008213126173431127
467.3145447 0.004556134302350319
469.3329163 0.014172654600381881
487.3424072 0.7577342474350723
488.3482056 0.007442912409516161
529.3520508 0.018525595424881792
541.3527222 0.02859404003361398
559.3658447 0.014725312405261226
583.3615723 0.034851645728843667
613.3822632 0.004048567582984518
631.3847046 0.6635628161283288
632.3842163 0.0055496722869474565
649.2609253 0.005212340755756128
649.3949585 0.4943535424988166
673.394043  0.037204567938005605
691.4085693 0.06241944212491424
703.4086304 0.00689825379819378
721.4177856 0.007732250441449443
745.4223022 0.005617377268411899
763.4269409 0.5948339777786051
763.5889893 0.008704420677385555
764.4347534 0.01292563471654159
781.4376831 1.0
782.4440308 0.02511081943388098
802.668396  0.004397213333767691
823.4465942 0.07434213395597207
845.4619751 0.004800778071264832
853.4562988 0.029784680374646974
1059.540283 0.024296167367844398
1101.541016 0.004276823206146253
1191.579712 0.020939612508443384


