PRECURSORMZ: 795.4536275520001
COMPOUNDNAME: casmi2022challengebonus104
FORMULA: C41H66O12
SMILES: CC1(CCC2(CCC3(C(=CCC4C3(CCC5C4(CCC(C5(C)C)OC6C(C(C(CO6)O)O)O)C)C)C2C1)C)C(=O)OC7C(C(C(C(O7)CO)O)O)O)C
INCHIKEY: VXRNZMDDBZNPKJ-PPFLKOLASA-N
PRECURSORTYPE: [M+FA-H]-
PRECURSORINTENSITY: 14457671.3125
IONMODE: negative
CHARGE: -1
PARENTMASS: 750.4554265520001
NUM PEAKS: 12
61.36814499 0.030000791141396605
81.9318161  0.0377066521244674
84.80737305 0.028915616874669255
142.699295  0.031610079049212904
157.8627472 0.036203483470916314
197.326889  0.031303303852963316
219.6889801 0.03134907302595845
220.6269073 0.04697253252456878
267.8635254 0.033873579071576475
270.9649658 0.03085892556185041
511.5879517 0.038607717688527166
587.3947144 1.0


PRECURSORMZ: 795.4536275520001
COMPOUNDNAME: casmi2022challengebonus104
FORMULA: C41H66O12
SMILES: CC1(CCC2(CCC3(C(=CCC4C3(CCC5C4(CCC(C5(C)C)OC6C(C(C(CO6)O)O)O)C)C)C2C1)C)C(=O)OC7C(C(C(C(O7)CO)O)O)O)C
INCHIKEY: VXRNZMDDBZNPKJ-PPFLKOLASA-N
PRECURSORTYPE: [M+FA-H]-
PRECURSORINTENSITY: 14457671.3125
IONMODE: negative
CHARGE: -1
PARENTMASS: 750.4554265520001
NUM PEAKS: 12
61.36814499 0.030000791141396605
81.9318161  0.0377066521244674
84.80737305 0.028915616874669255
142.699295  0.031610079049212904
157.8627472 0.036203483470916314
197.326889  0.031303303852963316
219.6889801 0.03134907302595845
220.6269073 0.04697253252456878
267.8635254 0.033873579071576475
270.9649658 0.03085892556185041
511.5879517 0.038607717688527166
587.3947144 1.0


