PRECURSORMZ: 369.13326435999994
COMPOUNDNAME: casmi2022challengebonus88
FORMULA: C21H20O6
SMILES: CC(=CCC1=C2C(=C(C=C1O)O)C(=O)C(=C(O2)C3=CC=C(C=C3)OC)O)C
INCHIKEY: TUUXBSASAQJECY-UHFFFAOYSA-N
PRECURSORTYPE: [M+H]+
PRECURSORINTENSITY: 8792488.657227
IONMODE: positive
CHARGE: 1
PARENTMASS: 368.12598835999995
NUM PEAKS: 24
59.7742157  0.0007579059305874333
78.26390076 0.01077876250770352
78.26969147 0.006228715063017489
82.38437653 0.000713056522679612
84.83934021 0.0009875755190245689
92.27915955 0.002354970692500225
92.28593445 0.0015036484837270808
135.0457764 0.0011936449875783557
191.7088318 0.0007851169449328985
202.3713837 0.0007835556695425539
216.2404938 0.0031831304873468904
216.2620087 0.0014470809836523253
285.0760498 0.0009384788801396539
298.0479126 0.0033113057410871834
304.2571106 0.0009239653895619383
312.9598083 0.004698662828282369
312.9828491 0.004970702536295615
313.0701904 1.0
313.1557007 0.008051853481536206
313.1858521 0.0010629585600746524
313.2008667 0.0013415826750730576
314.0777588 0.0034891780991167655
369.1327209 0.2892068286225246
369.2410278 0.001127206463510287


PRECURSORMZ: 369.13326435999994
COMPOUNDNAME: casmi2022challengebonus88
FORMULA: C21H20O6
SMILES: CC(=CCC1=C2C(=C(C=C1O)O)C(=O)C(=C(O2)C3=CC=C(C=C3)OC)O)C
INCHIKEY: TUUXBSASAQJECY-UHFFFAOYSA-N
PRECURSORTYPE: [M+H]+
PRECURSORINTENSITY: 8792488.657227
IONMODE: positive
CHARGE: 1
PARENTMASS: 368.12598835999995
NUM PEAKS: 24
59.7742157  0.0007579059305874333
78.26390076 0.01077876250770352
78.26969147 0.006228715063017489
82.38437653 0.000713056522679612
84.83934021 0.0009875755190245689
92.27915955 0.002354970692500225
92.28593445 0.0015036484837270808
135.0457764 0.0011936449875783557
191.7088318 0.0007851169449328985
202.3713837 0.0007835556695425539
216.2404938 0.0031831304873468904
216.2620087 0.0014470809836523253
285.0760498 0.0009384788801396539
298.0479126 0.0033113057410871834
304.2571106 0.0009239653895619383
312.9598083 0.004698662828282369
312.9828491 0.004970702536295615
313.0701904 1.0
313.1557007 0.008051853481536206
313.1858521 0.0010629585600746524
313.2008667 0.0013415826750730576
314.0777588 0.0034891780991167655
369.1327209 0.2892068286225246
369.2410278 0.001127206463510287


