PRECURSORMZ: 380.1551269039999
COMPOUNDNAME: casmi2022challengebonus76
FORMULA: C15H22O10
SMILES: C1=COC(C2C1C(C3C2(O3)CO)O)OC4C(C(C(C(O4)CO)O)O)O
INCHIKEY: LHDWRKICQLTVDL-CLLMHHLUSA-N
PRECURSORTYPE: [M+NH4]+
PRECURSORINTENSITY: 3526731.490234
IONMODE: positive
CHARGE: 1
PARENTMASS: 362.12130390399994
NUM PEAKS: 38
53.03895569 0.018059886341646268
55.01812744 0.04771534989181285
61.02859879 0.08400732334118352
67.05425262 0.07500643803430161
69.03355408 0.28938504442194934
71.01277924 0.07593569672494938
73.02854919 0.03335125954138452
79.05413818 0.18225415546441118
81.03343201 0.23689191523251588
81.06984711 0.41901739123767123
83.04927826 0.039909570392229574
85.02833557 0.6418529478236877
91.05413055 0.3427468777401853
95.04904175 0.20388258792928513
97.02841187 0.2286018941824343
97.06473541 0.02413202447538266
99.04437256 0.04001366656759166
107.0493698 0.17362415161881067
109.0283203 0.04542473855050144
109.0646896 0.37678037722234836
111.0440063 0.08504907299454013
115.03936   0.023508885137150853
117.9620056 0.01912831289905903
119.0490799 0.425979858098771
123.0438995 1.0
127.0389786 0.14959472062342655
135.0442505 0.046070280233678804
137.0595856 0.30460794954114667
139.039032  0.023279439800366678
145.0497284 0.08683217943657728
147.0442352 0.22122712020406246
153.0551147 0.0329049915088777
165.0544434 0.45025941882956244
165.0689087 0.02774420156158132
176.157547  0.02128725766641039
183.0650787 0.10894906912164742
238.6626892 0.020349301618674622
267.0852051 0.022879229380777535


PRECURSORMZ: 380.1551269039999
COMPOUNDNAME: casmi2022challengebonus76
FORMULA: C15H22O10
SMILES: C1=COC(C2C1C(C3C2(O3)CO)O)OC4C(C(C(C(O4)CO)O)O)O
INCHIKEY: LHDWRKICQLTVDL-CLLMHHLUSA-N
PRECURSORTYPE: [M+NH4]+
PRECURSORINTENSITY: 3526731.490234
IONMODE: positive
CHARGE: 1
PARENTMASS: 362.12130390399994
NUM PEAKS: 38
53.03895569 0.018059886341646268
55.01812744 0.04771534989181285
61.02859879 0.08400732334118352
67.05425262 0.07500643803430161
69.03355408 0.28938504442194934
71.01277924 0.07593569672494938
73.02854919 0.03335125954138452
79.05413818 0.18225415546441118
81.03343201 0.23689191523251588
81.06984711 0.41901739123767123
83.04927826 0.039909570392229574
85.02833557 0.6418529478236877
91.05413055 0.3427468777401853
95.04904175 0.20388258792928513
97.02841187 0.2286018941824343
97.06473541 0.02413202447538266
99.04437256 0.04001366656759166
107.0493698 0.17362415161881067
109.0283203 0.04542473855050144
109.0646896 0.37678037722234836
111.0440063 0.08504907299454013
115.03936   0.023508885137150853
117.9620056 0.01912831289905903
119.0490799 0.425979858098771
123.0438995 1.0
127.0389786 0.14959472062342655
135.0442505 0.046070280233678804
137.0595856 0.30460794954114667
139.039032  0.023279439800366678
145.0497284 0.08683217943657728
147.0442352 0.22122712020406246
153.0551147 0.0329049915088777
165.0544434 0.45025941882956244
165.0689087 0.02774420156158132
176.157547  0.02128725766641039
183.0650787 0.10894906912164742
238.6626892 0.020349301618674622
267.0852051 0.022879229380777535


