PRECURSORMZ: 817.3593364260001
COMPOUNDNAME: casmi2022challengebonus181
FORMULA: C33H63O19P
SMILES: CCC(C)CCCCCCCCCCC(=O)OCC(COP(=O)(O)OCC(COC1C(C(C(C(O1)COC2C(C(C(C(O2)CO)O)O)O)O)O)O)O)O
INCHIKEY: YOBDBZVQMUJKOX-UHFFFAOYSA-N
PRECURSORTYPE: [M+Na]+
PRECURSORINTENSITY: 2494702.233398
IONMODE: positive
CHARGE: 1
PARENTMASS: 794.3701184260001
NUM PEAKS: 25
66.29860687 0.058933132576992
66.44902802 0.049483979536287706
69.53993988 0.05801063135093186
80.45923615 0.05307875762337869
115.0369568 0.06560271818722577
120.9661407 0.23367548820282133
149.0207062 0.31370134624332846
154.9985809 0.05007182687517926
157.3960724 0.05445551207086266
167.0313721 0.07297050228597601
176.9921875 0.7800879865724498
195.0029755 1.0
206.7941742 0.05661248606418676
213.0007935 0.23055959332505485
221.0519257 0.07549658972465062
228.98703   0.0750537316620168
245.0509338 0.0987437518483911
246.9973145 0.3295406834078714
265.0063171 0.08251830816642194
319.2301636 0.17100626760311174
321.0339661 0.20822739102490717
427.2565918 0.08528875199490113
501.3013    0.7513513229779357
663.3552246 0.6810526947357888
693.0020142 0.06240368931388629


