PRECURSORMZ: 392.2043577119999
COMPOUNDNAME: casmi2022challengebonus61
FORMULA: C19H31NO6
SMILES: CCCC(CC=CCC=CCCCC(=O)NC(CCC(=O)O)C(=O)O)O
INCHIKEY: GHHWUZRWIRAIRD-UHFFFAOYSA-N
PRECURSORTYPE: [M+Na]+
PRECURSORINTENSITY: 2021518.726562
IONMODE: positive
CHARGE: 1
PARENTMASS: 369.2151397119999
NUM PEAKS: 23
59.55501938 0.1726025854206677
61.66564941 0.19851433883636263
63.93776321 0.20390394084884741
69.75823975 0.18961681555994037
76.2731781  0.1807982918483144
79.04761505 0.1956483409551459
96.34728241 0.20402418466593122
112.4297485 0.16874752503335372
121.0725784 0.19764424294617797
144.0510864 0.2803043701213554
145.3196564 0.2221908656067898
152.0321808 1.0
170.0420837 0.7156365392010212
216.0460205 0.173784089952842
219.9868011 0.2975733343988445
251.5417786 0.20313973843418967
262.8200378 0.20894878161654376
263.1510315 0.9763290389192062
276.1443176 0.42602824662252364
281.161377  0.22108618005205757
312.1845703 0.2902146827710567
330.1925659 0.3033558159504545
365.5063782 0.20400460091471906


