PRECURSORMZ: 361.2009499959999
COMPOUNDNAME: casmi2022challengebonus17
FORMULA: C21H28O5
SMILES: CC1=C2COC(=O)C2=C(C(=C1OC)CC=C(C)CCC=C(C)CCO)O
INCHIKEY: DNVWQCQBNPHAPT-UHFFFAOYSA-N
PRECURSORTYPE: [M+H]+
PRECURSORINTENSITY: 381861699.1563
IONMODE: positive
CHARGE: 1
PARENTMASS: 360.1936739959999
NUM PEAKS: 55
51.76407623 0.009210817961034914
51.76726151 0.007026796147818921
55.05457306 0.0012896008153517847
57.0701828  0.0011415334824472314
61.77176666 0.0015484606690023708
61.77477264 0.001118220865276354
67.05430603 0.004715588556512841
67.85360718 0.0010178844790533854
69.07002258 0.018128769745235435
74.06043243 0.0010815324063524808
76.05847168 0.0009999370609736584
79.05384827 0.0013823138880491009
81.06987762 0.0296007026532294
85.06455231 0.002061639411140583
93.06999207 0.0013927071511583603
95.08551788 0.04076983199056374
99.08034515 0.002202082812112135
107.0854721 0.003948219657683465
109.1010284 0.008464703722787174
111.1167984 0.0057037362997871014
121.1006851 0.0017342770294341582
123.1167145 0.025506966386819804
135.0805206 0.002495126059584099
135.116684  0.001555292730325108
137.1329651 0.0034613640427584584
149.1324921 0.002013891973596361
152.321991  0.0011139487011743816
159.0439301 0.04104159810865373
177.0543518 0.04637362830323852
179.0705566 0.0014144768419937362
189.0903778 0.006115318959932639
195.0656738 0.0036566937757099146
196.077652  0.001070542483219426
203.1065674 0.011046340023223356
205.0491486 0.0012704652306190411
207.0174713 0.01016869301549434
207.0650177 1.0
207.1261749 0.005758586558004986
216.3232422 0.0028905320080255884
216.3475647 0.0030215945817859188
219.0650177 0.003730997067766311
221.0806885 0.05568500589554936
231.064743  0.0014237438822527605
233.0806885 0.010066432351737382
235.0961609 0.014722994339069444
247.0962067 0.16075890527690717
248.5877991 0.0010981097429507234
249.1112366 0.008607681975481861
261.1120605 0.011161115602635751
263.1278076 0.0021529503482421637
273.1115723 0.004818307253979548
275.1283569 0.004962166531010632
287.1282349 0.003976494066218228
331.1893921 0.004016283631861043
343.1906433 0.006458151213743321


PRECURSORMZ: 361.2009499959999
COMPOUNDNAME: casmi2022challengebonus17
FORMULA: C21H28O5
SMILES: CC1=C2COC(=O)C2=C(C(=C1OC)CC=C(C)CCC=C(C)CCO)O
INCHIKEY: DNVWQCQBNPHAPT-UHFFFAOYSA-N
PRECURSORTYPE: [M+H]+
PRECURSORINTENSITY: 381861699.1563
IONMODE: positive
CHARGE: 1
PARENTMASS: 360.1936739959999
NUM PEAKS: 55
51.76407623 0.009210817961034914
51.76726151 0.007026796147818921
55.05457306 0.0012896008153517847
57.0701828  0.0011415334824472314
61.77176666 0.0015484606690023708
61.77477264 0.001118220865276354
67.05430603 0.004715588556512841
67.85360718 0.0010178844790533854
69.07002258 0.018128769745235435
74.06043243 0.0010815324063524808
76.05847168 0.0009999370609736584
79.05384827 0.0013823138880491009
81.06987762 0.0296007026532294
85.06455231 0.002061639411140583
93.06999207 0.0013927071511583603
95.08551788 0.04076983199056374
99.08034515 0.002202082812112135
107.0854721 0.003948219657683465
109.1010284 0.008464703722787174
111.1167984 0.0057037362997871014
121.1006851 0.0017342770294341582
123.1167145 0.025506966386819804
135.0805206 0.002495126059584099
135.116684  0.001555292730325108
137.1329651 0.0034613640427584584
149.1324921 0.002013891973596361
152.321991  0.0011139487011743816
159.0439301 0.04104159810865373
177.0543518 0.04637362830323852
179.0705566 0.0014144768419937362
189.0903778 0.006115318959932639
195.0656738 0.0036566937757099146
196.077652  0.001070542483219426
203.1065674 0.011046340023223356
205.0491486 0.0012704652306190411
207.0174713 0.01016869301549434
207.0650177 1.0
207.1261749 0.005758586558004986
216.3232422 0.0028905320080255884
216.3475647 0.0030215945817859188
219.0650177 0.003730997067766311
221.0806885 0.05568500589554936
231.064743  0.0014237438822527605
233.0806885 0.010066432351737382
235.0961609 0.014722994339069444
247.0962067 0.16075890527690717
248.5877991 0.0010981097429507234
249.1112366 0.008607681975481861
261.1120605 0.011161115602635751
263.1278076 0.0021529503482421637
273.1115723 0.004818307253979548
275.1283569 0.004962166531010632
287.1282349 0.003976494066218228
331.1893921 0.004016283631861043
343.1906433 0.006458151213743321


