PRECURSORMZ: 586.2177186920002
COMPOUNDNAME: casmi2022challengebonus126
FORMULA: C35H36ClNO3S
SMILES: CC(C)(C1=CC=CC=C1CCC(C2=CC=CC(=C2)C=CC3=NC4=C(C=CC(=C4)Cl)C=C3)SCC5(CC5)CC(=O)O)O
INCHIKEY: UCHDWCPVSPXUMX-XNTDXEJSSA-N
PRECURSORTYPE: [M+H]+
PRECURSORINTENSITY: 261967521.2305
IONMODE: positive
CHARGE: 1
PARENTMASS: 585.2104426920001
NUM PEAKS: 127
52.21360779 0.0025903171343928093
53.03896332 0.011459492173068417
53.60656738 0.002473062246749438
59.04943848 0.029066895689421206
60.52189636 0.003082213073282865
60.77392197 0.004152900247544868
63.11189651 0.002512072161614519
65.03877258 0.032213108477640195
69.01139832 0.005818326074100377
69.26352692 0.006749615196888683
69.26764679 0.004939291272595598
69.51571655 0.0037869203027148172
69.51904297 0.002783675763660376
71.04916382 0.017720319224617417
79.05423737 0.018421440555003114
91.03642273 0.0035590459933743284
91.05425262 1.0
91.06828308 0.010993917052346197
93.06993866 0.0064347332351964975
95.04924774 0.003602794479308895
103.0542145 0.040334437455544166
105.0698776 0.21636226912503415
115.0465698 0.0037964647289831155
115.0541916 0.1991619889359772
116.062027  0.14385627027909154
117.0698242 0.15611412746437958
127.0417328 0.0065277677771708635
127.9482117 0.002491771979095794
128.0524139 0.003920267526942912
128.0620117 0.19886829888717156
129.0697632 0.4401057797605364
131.0855103 0.5796456937825987
131.110321  0.0031481142118352273
133.0650482 0.0036942303762489866
133.101532  0.027424283064483895
140.049881  0.014216594803075985
141.0577087 0.00840699755083009
141.069458  0.049672819017037254
142.0776978 0.25944694019107534
143.0854645 0.08716968116128294
143.097168  0.0046598033507800046
155.0605774 0.020038818180975013
155.085556  0.01643260105289518
157.101059  0.08305837242575752
162.0102997 0.08341497831118519
162.0246429 0.004358580929958036
163.0184937 0.004477305070079284
164.0258179 0.06047701121440801
176.0259552 0.01371902780409335
177.0338287 0.14608985493900567
180.0209045 0.04468517072695678
190.0423431 0.005578775596124964
194.0365753 0.0114578532006874
195.0085297 0.004185476117543152
200.0260468 0.015439126730119948
201.0334625 0.026884419364049457
202.077774  0.013685883469463964
203.0855408 0.02110460051473256
204.0936279 0.0049951966205121
214.0428925 0.003441122793177171
215.0862579 0.04131140991429368
217.0862885 0.0035851403745684705
227.0742798 0.00550414240090421
228.0800476 0.043138267188134544
229.100235  0.015875719643443524
230.1094208 0.004274245018241659
238.0408478 0.005313329354529476
241.0664978 0.002637954729264122
241.0883636 0.10737500858476481
242.0962067 0.352641076669734
243.1040955 0.42268146757410113
244.1123352 0.0036076794796213695
250.0428772 0.004491511078846013
251.0271454 0.002778136037012537
251.0493011 0.11402774584944564
252.0569    0.006268424551152059
254.0956421 0.005035471347615953
256.1105042 0.021683778849502393
257.1200867 0.006586471886082214
262.0415649 0.15373514007575792
263.0493164 0.05536621571532015
264.0572205 0.10970354322779649
264.089325  0.003602236581736567
265.0652466 0.04873584093485273
266.0724487 0.03708619777398981
267.1095581 0.003733368174090639
268.1126099 0.00598714799289855
269.1200867 0.004437720867918066
270.1271973 0.0057077687608303295
275.049469  0.20136544410782597
275.0852966 0.00418347959039796
276.0574036 0.6908163001662188
277.065155  0.8202290072964428
278.072937  0.4770564293429138
279.0802002 0.044027183699171295
280.0874939 0.010126467629032604
288.0580444 0.0335986577734024
289.0656128 0.02610379579654582
290.0732117 0.08473427861807259
291.0794678 0.0036766756881227267
292.0508423 0.005984513991758846
292.0887451 0.26011257690679496
292.1270142 0.005378081271526781
294.0681152 0.0464061641868566
297.0539551 0.01176833667807916
301.0646973 0.013499374450823486
302.0739441 0.025302652294831852
302.1072998 0.0030385816876118367
303.0812683 0.011238365469889725
304.0885315 0.2420256368128848
305.0970764 0.028035909601929702
306.0689697 0.0035428363408718058
306.105072  0.004971545817745498
308.0835266 0.003793278652936122
310.043396  0.009496782203799115
313.4715881 0.002836577479034403
316.090332  0.010952187952908452
322.0445251 0.004100600638866603
330.1048584 0.0033551103852384224
344.1445923 0.0031061666546314337
364.0879822 0.012394029049022265
365.0986938 0.004970127244018876
378.104248  0.012275254445804022
380.1179199 0.004628702555924636
392.1181335 0.01193725262213498
406.1357117 0.02875413317780279
420.1507263 0.0032330957924080203


PRECURSORMZ: 586.2177186920002
COMPOUNDNAME: casmi2022challengebonus126
FORMULA: C35H36ClNO3S
SMILES: CC(C)(C1=CC=CC=C1CCC(C2=CC=CC(=C2)C=CC3=NC4=C(C=CC(=C4)Cl)C=C3)SCC5(CC5)CC(=O)O)O
INCHIKEY: UCHDWCPVSPXUMX-XNTDXEJSSA-N
PRECURSORTYPE: [M+H]+
PRECURSORINTENSITY: 261967521.2305
IONMODE: positive
CHARGE: 1
PARENTMASS: 585.2104426920001
NUM PEAKS: 127
52.21360779 0.0025903171343928093
53.03896332 0.011459492173068417
53.60656738 0.002473062246749438
59.04943848 0.029066895689421206
60.52189636 0.003082213073282865
60.77392197 0.004152900247544868
63.11189651 0.002512072161614519
65.03877258 0.032213108477640195
69.01139832 0.005818326074100377
69.26352692 0.006749615196888683
69.26764679 0.004939291272595598
69.51571655 0.0037869203027148172
69.51904297 0.002783675763660376
71.04916382 0.017720319224617417
79.05423737 0.018421440555003114
91.03642273 0.0035590459933743284
91.05425262 1.0
91.06828308 0.010993917052346197
93.06993866 0.0064347332351964975
95.04924774 0.003602794479308895
103.0542145 0.040334437455544166
105.0698776 0.21636226912503415
115.0465698 0.0037964647289831155
115.0541916 0.1991619889359772
116.062027  0.14385627027909154
117.0698242 0.15611412746437958
127.0417328 0.0065277677771708635
127.9482117 0.002491771979095794
128.0524139 0.003920267526942912
128.0620117 0.19886829888717156
129.0697632 0.4401057797605364
131.0855103 0.5796456937825987
131.110321  0.0031481142118352273
133.0650482 0.0036942303762489866
133.101532  0.027424283064483895
140.049881  0.014216594803075985
141.0577087 0.00840699755083009
141.069458  0.049672819017037254
142.0776978 0.25944694019107534
143.0854645 0.08716968116128294
143.097168  0.0046598033507800046
155.0605774 0.020038818180975013
155.085556  0.01643260105289518
157.101059  0.08305837242575752
162.0102997 0.08341497831118519
162.0246429 0.004358580929958036
163.0184937 0.004477305070079284
164.0258179 0.06047701121440801
176.0259552 0.01371902780409335
177.0338287 0.14608985493900567
180.0209045 0.04468517072695678
190.0423431 0.005578775596124964
194.0365753 0.0114578532006874
195.0085297 0.004185476117543152
200.0260468 0.015439126730119948
201.0334625 0.026884419364049457
202.077774  0.013685883469463964
203.0855408 0.02110460051473256
204.0936279 0.0049951966205121
214.0428925 0.003441122793177171
215.0862579 0.04131140991429368
217.0862885 0.0035851403745684705
227.0742798 0.00550414240090421
228.0800476 0.043138267188134544
229.100235  0.015875719643443524
230.1094208 0.004274245018241659
238.0408478 0.005313329354529476
241.0664978 0.002637954729264122
241.0883636 0.10737500858476481
242.0962067 0.352641076669734
243.1040955 0.42268146757410113
244.1123352 0.0036076794796213695
250.0428772 0.004491511078846013
251.0271454 0.002778136037012537
251.0493011 0.11402774584944564
252.0569    0.006268424551152059
254.0956421 0.005035471347615953
256.1105042 0.021683778849502393
257.1200867 0.006586471886082214
262.0415649 0.15373514007575792
263.0493164 0.05536621571532015
264.0572205 0.10970354322779649
264.089325  0.003602236581736567
265.0652466 0.04873584093485273
266.0724487 0.03708619777398981
267.1095581 0.003733368174090639
268.1126099 0.00598714799289855
269.1200867 0.004437720867918066
270.1271973 0.0057077687608303295
275.049469  0.20136544410782597
275.0852966 0.00418347959039796
276.0574036 0.6908163001662188
277.065155  0.8202290072964428
278.072937  0.4770564293429138
279.0802002 0.044027183699171295
280.0874939 0.010126467629032604
288.0580444 0.0335986577734024
289.0656128 0.02610379579654582
290.0732117 0.08473427861807259
291.0794678 0.0036766756881227267
292.0508423 0.005984513991758846
292.0887451 0.26011257690679496
292.1270142 0.005378081271526781
294.0681152 0.0464061641868566
297.0539551 0.01176833667807916
301.0646973 0.013499374450823486
302.0739441 0.025302652294831852
302.1072998 0.0030385816876118367
303.0812683 0.011238365469889725
304.0885315 0.2420256368128848
305.0970764 0.028035909601929702
306.0689697 0.0035428363408718058
306.105072  0.004971545817745498
308.0835266 0.003793278652936122
310.043396  0.009496782203799115
313.4715881 0.002836577479034403
316.090332  0.010952187952908452
322.0445251 0.004100600638866603
330.1048584 0.0033551103852384224
344.1445923 0.0031061666546314337
364.0879822 0.012394029049022265
365.0986938 0.004970127244018876
378.104248  0.012275254445804022
380.1179199 0.004628702555924636
392.1181335 0.01193725262213498
406.1357117 0.02875413317780279
420.1507263 0.0032330957924080203


