PRECURSORMZ: 485.32615050799984
COMPOUNDNAME: casmi2022challengebonus55
FORMULA: C30H44O5
SMILES: CC(=C)C1CCC2(C1C3CC4C5C(C3(CC2)C)(CCC(C5(C(CC(=O)O4)O)C)C(=C)C)C)C(=O)O
INCHIKEY: BYCBJBLIOKGBPB-BIYNXQDYSA-N
PRECURSORTYPE: [M+H]+
PRECURSORINTENSITY: 104742655.0312
IONMODE: positive
CHARGE: 1
PARENTMASS: 484.31887450799985
NUM PEAKS: 150
53.03881836 0.01730119522047012
55.01787949 0.010529384208047027
55.0545311  0.25039317672204053
57.06994629 0.06633538540687876
59.04914093 0.010130185938997094
65.03858185 0.01893924502004813
67.05060577 0.015118160671499944
67.05433655 0.3451492411194125
69.03359222 0.08509669135013584
69.06585693 0.010418335355105498
69.06996155 0.3637398201295808
71.0128479  0.019064877524309593
71.04905701 0.014458196710278122
75.68550873 0.011931561514945696
77.03862    0.012048922846695531
77.63439178 0.010652959805959683
79.0542984  0.40517366723438764
81.06990814 0.6097743122327801
81.07794189 0.012542685995330385
83.04898071 0.01579342171552305
83.08563232 0.10270074842631469
85.06504822 0.012534641823744636
91.04760742 0.014420977823777369
91.05423737 0.3953936742339473
93.06988525 0.6513631055369221
95.04866791 0.06575036417990172
95.08552551 0.5720444679581578
97.02828979 0.05348863398766526
97.06460571 0.020924828604479695
97.10119629 0.015311670158737726
103.0538788 0.01817765413411047
105.0448608 0.021784743320028003
105.0698624 0.7961061006107834
105.076828  0.013142907945531994
107.0487442 0.015238658322164518
107.07724   0.025104464158329044
107.085495  0.8823607301695846
109.0643234 0.05664235692441104
109.0933228 0.017710328717798558
109.1011658 0.3832151282993667
111.0437622 0.013981422496243163
111.0802536 0.018025991572658263
115.0541229 0.021980308787080204
116.061882  0.0162469806838482
117.0697784 0.17466510451485828
119.0855103 1.0
119.0937729 0.010655112145350802
119.0956497 0.01862762926740986
121.0643158 0.016356245031551978
121.0916443 0.020418777756746682
121.1011734 0.5676737161554035
123.0800781 0.0611252972174082
123.1166153 0.09536052060974205
125.0958939 0.015379500814994475
128.0614929 0.02400634486303835
129.0697021 0.12821857293186553
130.0776825 0.025264865792160515
131.0741119 0.016763162258616297
131.0854187 0.5322014729910333
132.4050598 0.010711823462376893
133.0645447 0.020360380147128324
133.1010742 0.833809794378744
133.1110535 0.012348061887219803
135.0804443 0.09177698948725913
135.116684  0.26508566988999827
137.0962219 0.037224671781492295
141.0693207 0.04598986872445656
142.0776672 0.08209300027431347
143.0856171 0.24680446441924112
144.0929871 0.06455532753420647
145.1010742 0.5181053418310028
146.1082764 0.012491141034070494
147.0803528 0.04282115446125865
147.1042633 0.01916534535450184
147.116684  0.38370899336678466
148.0981903 0.011428671076021598
149.1321411 0.07139506370939422
155.0852661 0.09533194628911265
156.0935059 0.11951874854941776
157.1010895 0.45050459211198723
158.1083984 0.060245000598318846
159.0809021 0.021814750062826443
159.102478  0.01986085580764802
159.1167908 0.397763645435183
160.1239319 0.01864283554984079
161.0959015 0.014682535702853869
161.1322632 0.18705659028939775
163.111496  0.012530505774221625
163.1477966 0.02032802000697584
168.0937042 0.02429182493356526
169.101059  0.197598342805035
170.1089325 0.13937446209119375
171.116684  0.36652997838343376
172.1240387 0.018828144281180684
173.0952606 0.01370096331558301
173.1322021 0.30344036895815074
175.1108551 0.02071880812335544
175.1480865 0.09677288516227368
177.0904083 0.06993972278565397
181.1004639 0.0571000204400899
182.1084442 0.06324817281488204
183.1166687 0.20860620883000025
184.1243591 0.05148607814625285
185.0943298 0.013199776773404615
185.1323242 0.2724947429179862
186.1386871 0.015168850441516616
187.1109619 0.013424400212038508
187.1479645 0.17450363551340797
189.125885  0.015830181040965688
189.1635284 0.09055907856051008
193.1021729 0.034129620708544715
194.109436  0.013484787090995105
195.1171112 0.08939035549152931
196.1233673 0.04516446741498625
197.1320343 0.13614815074409162
198.1398163 0.025708794362021923
199.1474915 0.137794520822504
201.1640167 0.09826671061849328
203.1071472 0.013341630115255541
203.1783905 0.04847661661424113
207.1167297 0.022404133413717976
209.1322632 0.07609031009282659
210.1399384 0.02231192471109027
211.1481323 0.09270751168263508
213.1630249 0.04731416803615862
218.4789581 0.021791525551772727
218.4999237 0.016325901030235086
221.1334229 0.016032927149550895
222.1377411 0.015211496039947538
223.1477966 0.07581171231975867
224.156311  0.01277990752208354
225.163559  0.0893473642957704
225.290451  0.011477133457361451
226.170578  0.01262045187986564
227.1793213 0.05254810892700024
229.1949158 0.024512273408231706
235.1478729 0.012699257335987995
237.1634369 0.06674632194013277
239.1784973 0.08098149996934283
241.1939392 0.04977536581356717
243.2094269 0.013644353917339968
247.629364  0.013222687189299663
249.1625824 0.014858589282158512
251.1781464 0.014608138697365583
253.1929779 0.049067367529894296
263.1790161 0.012774406687402061
265.1948547 0.042138231904353424
350.73703   0.01207875725409718
393.6192932 0.012595805138521191
417.0602722 0.012504476643565273


PRECURSORMZ: 485.32615050799984
COMPOUNDNAME: casmi2022challengebonus55
FORMULA: C30H44O5
SMILES: CC(=C)C1CCC2(C1C3CC4C5C(C3(CC2)C)(CCC(C5(C(CC(=O)O4)O)C)C(=C)C)C)C(=O)O
INCHIKEY: BYCBJBLIOKGBPB-BIYNXQDYSA-N
PRECURSORTYPE: [M+H]+
PRECURSORINTENSITY: 104742655.0312
IONMODE: positive
CHARGE: 1
PARENTMASS: 484.31887450799985
NUM PEAKS: 150
53.03881836 0.01730119522047012
55.01787949 0.010529384208047027
55.0545311  0.25039317672204053
57.06994629 0.06633538540687876
59.04914093 0.010130185938997094
65.03858185 0.01893924502004813
67.05060577 0.015118160671499944
67.05433655 0.3451492411194125
69.03359222 0.08509669135013584
69.06585693 0.010418335355105498
69.06996155 0.3637398201295808
71.0128479  0.019064877524309593
71.04905701 0.014458196710278122
75.68550873 0.011931561514945696
77.03862    0.012048922846695531
77.63439178 0.010652959805959683
79.0542984  0.40517366723438764
81.06990814 0.6097743122327801
81.07794189 0.012542685995330385
83.04898071 0.01579342171552305
83.08563232 0.10270074842631469
85.06504822 0.012534641823744636
91.04760742 0.014420977823777369
91.05423737 0.3953936742339473
93.06988525 0.6513631055369221
95.04866791 0.06575036417990172
95.08552551 0.5720444679581578
97.02828979 0.05348863398766526
97.06460571 0.020924828604479695
97.10119629 0.015311670158737726
103.0538788 0.01817765413411047
105.0448608 0.021784743320028003
105.0698624 0.7961061006107834
105.076828  0.013142907945531994
107.0487442 0.015238658322164518
107.07724   0.025104464158329044
107.085495  0.8823607301695846
109.0643234 0.05664235692441104
109.0933228 0.017710328717798558
109.1011658 0.3832151282993667
111.0437622 0.013981422496243163
111.0802536 0.018025991572658263
115.0541229 0.021980308787080204
116.061882  0.0162469806838482
117.0697784 0.17466510451485828
119.0855103 1.0
119.0937729 0.010655112145350802
119.0956497 0.01862762926740986
121.0643158 0.016356245031551978
121.0916443 0.020418777756746682
121.1011734 0.5676737161554035
123.0800781 0.0611252972174082
123.1166153 0.09536052060974205
125.0958939 0.015379500814994475
128.0614929 0.02400634486303835
129.0697021 0.12821857293186553
130.0776825 0.025264865792160515
131.0741119 0.016763162258616297
131.0854187 0.5322014729910333
132.4050598 0.010711823462376893
133.0645447 0.020360380147128324
133.1010742 0.833809794378744
133.1110535 0.012348061887219803
135.0804443 0.09177698948725913
135.116684  0.26508566988999827
137.0962219 0.037224671781492295
141.0693207 0.04598986872445656
142.0776672 0.08209300027431347
143.0856171 0.24680446441924112
144.0929871 0.06455532753420647
145.1010742 0.5181053418310028
146.1082764 0.012491141034070494
147.0803528 0.04282115446125865
147.1042633 0.01916534535450184
147.116684  0.38370899336678466
148.0981903 0.011428671076021598
149.1321411 0.07139506370939422
155.0852661 0.09533194628911265
156.0935059 0.11951874854941776
157.1010895 0.45050459211198723
158.1083984 0.060245000598318846
159.0809021 0.021814750062826443
159.102478  0.01986085580764802
159.1167908 0.397763645435183
160.1239319 0.01864283554984079
161.0959015 0.014682535702853869
161.1322632 0.18705659028939775
163.111496  0.012530505774221625
163.1477966 0.02032802000697584
168.0937042 0.02429182493356526
169.101059  0.197598342805035
170.1089325 0.13937446209119375
171.116684  0.36652997838343376
172.1240387 0.018828144281180684
173.0952606 0.01370096331558301
173.1322021 0.30344036895815074
175.1108551 0.02071880812335544
175.1480865 0.09677288516227368
177.0904083 0.06993972278565397
181.1004639 0.0571000204400899
182.1084442 0.06324817281488204
183.1166687 0.20860620883000025
184.1243591 0.05148607814625285
185.0943298 0.013199776773404615
185.1323242 0.2724947429179862
186.1386871 0.015168850441516616
187.1109619 0.013424400212038508
187.1479645 0.17450363551340797
189.125885  0.015830181040965688
189.1635284 0.09055907856051008
193.1021729 0.034129620708544715
194.109436  0.013484787090995105
195.1171112 0.08939035549152931
196.1233673 0.04516446741498625
197.1320343 0.13614815074409162
198.1398163 0.025708794362021923
199.1474915 0.137794520822504
201.1640167 0.09826671061849328
203.1071472 0.013341630115255541
203.1783905 0.04847661661424113
207.1167297 0.022404133413717976
209.1322632 0.07609031009282659
210.1399384 0.02231192471109027
211.1481323 0.09270751168263508
213.1630249 0.04731416803615862
218.4789581 0.021791525551772727
218.4999237 0.016325901030235086
221.1334229 0.016032927149550895
222.1377411 0.015211496039947538
223.1477966 0.07581171231975867
224.156311  0.01277990752208354
225.163559  0.0893473642957704
225.290451  0.011477133457361451
226.170578  0.01262045187986564
227.1793213 0.05254810892700024
229.1949158 0.024512273408231706
235.1478729 0.012699257335987995
237.1634369 0.06674632194013277
239.1784973 0.08098149996934283
241.1939392 0.04977536581356717
243.2094269 0.013644353917339968
247.629364  0.013222687189299663
249.1625824 0.014858589282158512
251.1781464 0.014608138697365583
253.1929779 0.049067367529894296
263.1790161 0.012774406687402061
265.1948547 0.042138231904353424
350.73703   0.01207875725409718
393.6192932 0.012595805138521191
417.0602722 0.012504476643565273


