PRECURSORMZ: 903.2553491120002
COMPOUNDNAME: casmi2022challengebonus68
FORMULA: C42H46O22
SMILES: CC1C(C(C(C(O1)OC2C(C(C(OC2OC3=C(OC4=CC(=CC(=C4C3=O)O)OC5C(C(C(C(O5)CO)O)O)OC(=O)C=CC6=CC=C(C=C6)O)C7=CC=C(C=C7)O)CO)O)O)O)O)O
INCHIKEY: UDSPVVBVMAWQTL-KHXVSDPLSA-N
PRECURSORTYPE: [M+H]+
PRECURSORINTENSITY: 9624547.723633
IONMODE: positive
CHARGE: 1
PARENTMASS: 902.2480731120002
NUM PEAKS: 55
65.03868866 0.022073641013398152
68.99703217 0.0038574560689585325
69.02915192 0.002939210715267552
69.03359985 0.14351195126891803
69.03799438 0.0028801477450299505
71.01270294 0.0032133725619990163
71.04922485 0.07913132650403681
71.76087952 0.0022623634050265014
73.02851105 0.0028693460713459153
75.04393768 0.0020223835348120727
81.03355408 0.009544835344503285
83.04911041 0.008096575946986139
85.02845764 0.08471923922794224
87.04377747 0.0028733467079752524
91.05426788 0.22505734004687908
95.04947662 0.0018606189818632867
97.02835846 0.02423669951095292
99.04401398 0.0021328866528489395
105.0324097 0.0018553919972798564
107.0490494 0.012561512501085163
109.0282822 0.012281873064791504
111.0079269 0.003654003711259658
117.4639435 0.002015919802789594
119.0491409 0.6116763029198137
119.0691528 0.005556518035419742
121.02845   0.02972343519402726
127.0387802 0.01277528250426831
129.0695038 0.0019303747703070522
131.0845947 0.002117191343287901
133.0280762 0.004273175930346963
133.0653992 0.002469993868825419
134.2789001 0.0018862730416413461
137.0232697 0.008442991832334983
141.0695953 0.00328860379228521
145.06427   0.00401629780145846
147.0168457 0.003512983982984634
147.0439911 1.0
147.0722198 0.00795378378476141
147.0787354 0.003294740844836068
153.0181274 0.03771449706282374
157.0651703 0.014300215043261857
160.2326202 0.0019916600652545072
165.01828   0.018633339482593974
169.0649261 0.0022292170815609224
183.0288696 0.009702616329542495
185.0595245 0.009424919336169228
213.0540771 0.01463317309083543
221.1634369 0.002174086020921955
231.0650024 0.004399822666174726
241.0489044 0.01029083832508609
258.0519714 0.013682142004514281
258.5527649 0.0020726426628468906
259.0605164 0.0028441494758659836
287.0549011 0.22281540642995631
287.0830994 0.0031308872388373064


PRECURSORMZ: 903.2553491120002
COMPOUNDNAME: casmi2022challengebonus68
FORMULA: C42H46O22
SMILES: CC1C(C(C(C(O1)OC2C(C(C(OC2OC3=C(OC4=CC(=CC(=C4C3=O)O)OC5C(C(C(C(O5)CO)O)O)OC(=O)C=CC6=CC=C(C=C6)O)C7=CC=C(C=C7)O)CO)O)O)O)O)O
INCHIKEY: UDSPVVBVMAWQTL-KHXVSDPLSA-N
PRECURSORTYPE: [M+H]+
PRECURSORINTENSITY: 9624547.723633
IONMODE: positive
CHARGE: 1
PARENTMASS: 902.2480731120002
NUM PEAKS: 55
65.03868866 0.022073641013398152
68.99703217 0.0038574560689585325
69.02915192 0.002939210715267552
69.03359985 0.14351195126891803
69.03799438 0.0028801477450299505
71.01270294 0.0032133725619990163
71.04922485 0.07913132650403681
71.76087952 0.0022623634050265014
73.02851105 0.0028693460713459153
75.04393768 0.0020223835348120727
81.03355408 0.009544835344503285
83.04911041 0.008096575946986139
85.02845764 0.08471923922794224
87.04377747 0.0028733467079752524
91.05426788 0.22505734004687908
95.04947662 0.0018606189818632867
97.02835846 0.02423669951095292
99.04401398 0.0021328866528489395
105.0324097 0.0018553919972798564
107.0490494 0.012561512501085163
109.0282822 0.012281873064791504
111.0079269 0.003654003711259658
117.4639435 0.002015919802789594
119.0491409 0.6116763029198137
119.0691528 0.005556518035419742
121.02845   0.02972343519402726
127.0387802 0.01277528250426831
129.0695038 0.0019303747703070522
131.0845947 0.002117191343287901
133.0280762 0.004273175930346963
133.0653992 0.002469993868825419
134.2789001 0.0018862730416413461
137.0232697 0.008442991832334983
141.0695953 0.00328860379228521
145.06427   0.00401629780145846
147.0168457 0.003512983982984634
147.0439911 1.0
147.0722198 0.00795378378476141
147.0787354 0.003294740844836068
153.0181274 0.03771449706282374
157.0651703 0.014300215043261857
160.2326202 0.0019916600652545072
165.01828   0.018633339482593974
169.0649261 0.0022292170815609224
183.0288696 0.009702616329542495
185.0595245 0.009424919336169228
213.0540771 0.01463317309083543
221.1634369 0.002174086020921955
231.0650024 0.004399822666174726
241.0489044 0.01029083832508609
258.0519714 0.013682142004514281
258.5527649 0.0020726426628468906
259.0605164 0.0028441494758659836
287.0549011 0.22281540642995631
287.0830994 0.0031308872388373064


