PRECURSORMZ: 317.21112075599996
COMPOUNDNAME: casmi2022challengebonus19
FORMULA: C20H28O3
SMILES: CC1=C2C=C3CCC4C(C(CCC4(C3CC2OC1=O)C)O)(C)C
INCHIKEY: KZIADLALQLRZIQ-DBVHFHOUSA-N
PRECURSORTYPE: [M+H]+
PRECURSORINTENSITY: 172780436.7109
IONMODE: positive
CHARGE: 1
PARENTMASS: 316.20384475599997
NUM PEAKS: 147
53.03907394 0.004892617045024754
55.01815796 0.0347543052097496
55.05451202 0.09825182256724953
57.03375244 0.0322515997028127
57.0700264  0.031840217395024024
59.04943466 0.005151000908307883
60.28089142 0.002742691209336121
62.49667358 0.00472376464046199
62.49993134 0.003822962367546028
65.03874969 0.007394940703887836
67.05433655 0.1337306766508744
69.0335083  0.005844368428818926
69.06993103 0.07038455246485129
71.04905701 0.02156507513226427
77.03881073 0.006693893213137184
77.68022156 0.003256392817921522
79.05425262 0.13229258449692263
81.06991577 0.2563816821390344
81.0742569  0.0039553093406924904
83.04946899 0.0038796499517223144
83.08541107 0.036196010099815296
85.06473541 0.019338802057993036
91.05426025 0.3920981640567926
91.0594635  0.007089086789954611
92.23574066 0.002931235815477397
92.6825943  0.0034765078904946487
93.06996155 0.157139607208079
95.04915619 0.007510863269664369
95.0855484  0.1676991187639246
97.06452179 0.011998011711848838
97.10110474 0.005354471880098747
103.0543213 0.015188502899264903
104.0619736 0.0041067565637231225
105.0443344 0.00416325148026399
105.06987   0.17181256057493705
107.0490723 0.05495444958156612
107.0854721 0.1909545754554298
109.0646362 0.018061989279073067
109.1011353 0.08219490764340023
111.0806351 0.0038728571825248394
115.0447464 0.004017244865785877
115.0542221 0.2559701928905371
115.0636902 0.005761067428776372
116.0622025 0.03338407623462769
117.04953   0.004162951000120666
117.0596085 0.00481898139272586
117.0698166 1.0
118.0775909 0.014153659747249447
119.0491867 0.016529991558937387
119.0596924 0.008094711299329238
119.0778503 0.0027522821635433286
119.0854797 0.24818959609368468
121.0648346 0.03565069617843379
121.101265  0.054351299335189604
123.0801315 0.007775046922793198
123.1167221 0.12709802791662092
128.0619354 0.07532838887852339
129.0697479 0.13389445402137237
129.1543884 0.003209528377154102
130.0778198 0.01752598268654105
131.0854645 0.28235795223756416
131.096756  0.007748359403990231
133.0645752 0.029052666011408396
133.0745392 0.003399634085161852
133.1009674 0.059684981127847675
135.0804138 0.1463893692231559
135.1166992 0.06201264329311024
137.0595551 0.006383376916786664
141.0699768 0.05946749162403173
142.0776978 0.08284296833781331
143.085495  0.19201938874104413
143.0981445 0.005449930411356084
144.0933075 0.012717391397339746
145.0511322 0.003572801896038306
145.0647125 0.3406164977487028
145.1010895 0.09963809032387078
147.0806427 0.015714382671647462
147.1167755 0.0194547467093507
149.0960388 0.005640970688165506
153.0698395 0.012430694981441788
154.07724   0.03269880947279681
155.0625763 0.004136024898921502
155.0853119 0.12541149854768938
156.0932007 0.02814614357297872
157.1011505 0.18403952885680644
158.1083832 0.0059774671835232
159.0802307 0.059383780297139685
159.1164703 0.048302044713788725
161.0592651 0.026977518756842345
161.0960999 0.01782929210904783
161.1323547 0.0073972184247421595
163.0753326 0.1802446773656475
163.0914917 0.0032591070196029944
166.0785065 0.0032804352977839355
167.0854034 0.015614536084138495
168.093338  0.04351079409297466
169.1009216 0.1122638172603122
170.1088562 0.019703476848880245
171.0804596 0.029958983867612834
171.1164856 0.04392155800449159
173.0960999 0.024095217905363685
173.13237   0.021785549676730326
175.1116486 0.005550680182893533
177.0908356 0.020031617438975725
181.1010284 0.015057312222530707
182.108963  0.01915242765079793
183.0800934 0.004258211632947052
183.1167145 0.1022785494123357
184.1242065 0.004568227807124788
185.0958252 0.06566942038061518
185.1324768 0.02491521136170822
187.1119995 0.006578686685148997
189.0908813 0.007233841500702126
193.1014709 0.00363417511061203
195.0814056 0.004766988738139066
195.1169891 0.018257025883668745
196.124054  0.012334607592321635
197.096405  0.032748274200143014
197.1320953 0.04538374901465761
199.1116638 0.015158793143043595
199.1484528 0.017520321803376693
201.0916748 0.005671623149981536
203.1070251 0.006250947703910451
209.1329956 0.004177551603448527
210.1415863 0.007465455314852789
211.1118622 0.025957776330327538
211.1470337 0.03978127407560823
215.1070251 0.004999510095314487
215.1444244 0.003597905064994657
217.1235504 0.005272521587702392
221.1642761 0.003207348297816371
223.1113739 0.004562838053528828
223.1475067 0.017242389875991925
225.127533  0.012713907687515603
225.1636505 0.014289380292914135
229.1213989 0.005842971806411949
238.1725464 0.003540405545111943
239.142868  0.005056977939824259
239.1798096 0.01396917656323882
241.1224823 0.005693090916043323
251.1426544 0.02206225643556166
253.1951599 0.006001713664411352
255.1370697 0.003936239603782257
256.1465149 0.004940087095674849
269.1535034 0.08693491041679127
284.1768799 0.021446866127640858
291.5820312 0.003213525576739611


PRECURSORMZ: 317.21112075599996
COMPOUNDNAME: casmi2022challengebonus19
FORMULA: C20H28O3
SMILES: CC1=C2C=C3CCC4C(C(CCC4(C3CC2OC1=O)C)O)(C)C
INCHIKEY: KZIADLALQLRZIQ-DBVHFHOUSA-N
PRECURSORTYPE: [M+H]+
PRECURSORINTENSITY: 172780436.7109
IONMODE: positive
CHARGE: 1
PARENTMASS: 316.20384475599997
NUM PEAKS: 147
53.03907394 0.004892617045024754
55.01815796 0.0347543052097496
55.05451202 0.09825182256724953
57.03375244 0.0322515997028127
57.0700264  0.031840217395024024
59.04943466 0.005151000908307883
60.28089142 0.002742691209336121
62.49667358 0.00472376464046199
62.49993134 0.003822962367546028
65.03874969 0.007394940703887836
67.05433655 0.1337306766508744
69.0335083  0.005844368428818926
69.06993103 0.07038455246485129
71.04905701 0.02156507513226427
77.03881073 0.006693893213137184
77.68022156 0.003256392817921522
79.05425262 0.13229258449692263
81.06991577 0.2563816821390344
81.0742569  0.0039553093406924904
83.04946899 0.0038796499517223144
83.08541107 0.036196010099815296
85.06473541 0.019338802057993036
91.05426025 0.3920981640567926
91.0594635  0.007089086789954611
92.23574066 0.002931235815477397
92.6825943  0.0034765078904946487
93.06996155 0.157139607208079
95.04915619 0.007510863269664369
95.0855484  0.1676991187639246
97.06452179 0.011998011711848838
97.10110474 0.005354471880098747
103.0543213 0.015188502899264903
104.0619736 0.0041067565637231225
105.0443344 0.00416325148026399
105.06987   0.17181256057493705
107.0490723 0.05495444958156612
107.0854721 0.1909545754554298
109.0646362 0.018061989279073067
109.1011353 0.08219490764340023
111.0806351 0.0038728571825248394
115.0447464 0.004017244865785877
115.0542221 0.2559701928905371
115.0636902 0.005761067428776372
116.0622025 0.03338407623462769
117.04953   0.004162951000120666
117.0596085 0.00481898139272586
117.0698166 1.0
118.0775909 0.014153659747249447
119.0491867 0.016529991558937387
119.0596924 0.008094711299329238
119.0778503 0.0027522821635433286
119.0854797 0.24818959609368468
121.0648346 0.03565069617843379
121.101265  0.054351299335189604
123.0801315 0.007775046922793198
123.1167221 0.12709802791662092
128.0619354 0.07532838887852339
129.0697479 0.13389445402137237
129.1543884 0.003209528377154102
130.0778198 0.01752598268654105
131.0854645 0.28235795223756416
131.096756  0.007748359403990231
133.0645752 0.029052666011408396
133.0745392 0.003399634085161852
133.1009674 0.059684981127847675
135.0804138 0.1463893692231559
135.1166992 0.06201264329311024
137.0595551 0.006383376916786664
141.0699768 0.05946749162403173
142.0776978 0.08284296833781331
143.085495  0.19201938874104413
143.0981445 0.005449930411356084
144.0933075 0.012717391397339746
145.0511322 0.003572801896038306
145.0647125 0.3406164977487028
145.1010895 0.09963809032387078
147.0806427 0.015714382671647462
147.1167755 0.0194547467093507
149.0960388 0.005640970688165506
153.0698395 0.012430694981441788
154.07724   0.03269880947279681
155.0625763 0.004136024898921502
155.0853119 0.12541149854768938
156.0932007 0.02814614357297872
157.1011505 0.18403952885680644
158.1083832 0.0059774671835232
159.0802307 0.059383780297139685
159.1164703 0.048302044713788725
161.0592651 0.026977518756842345
161.0960999 0.01782929210904783
161.1323547 0.0073972184247421595
163.0753326 0.1802446773656475
163.0914917 0.0032591070196029944
166.0785065 0.0032804352977839355
167.0854034 0.015614536084138495
168.093338  0.04351079409297466
169.1009216 0.1122638172603122
170.1088562 0.019703476848880245
171.0804596 0.029958983867612834
171.1164856 0.04392155800449159
173.0960999 0.024095217905363685
173.13237   0.021785549676730326
175.1116486 0.005550680182893533
177.0908356 0.020031617438975725
181.1010284 0.015057312222530707
182.108963  0.01915242765079793
183.0800934 0.004258211632947052
183.1167145 0.1022785494123357
184.1242065 0.004568227807124788
185.0958252 0.06566942038061518
185.1324768 0.02491521136170822
187.1119995 0.006578686685148997
189.0908813 0.007233841500702126
193.1014709 0.00363417511061203
195.0814056 0.004766988738139066
195.1169891 0.018257025883668745
196.124054  0.012334607592321635
197.096405  0.032748274200143014
197.1320953 0.04538374901465761
199.1116638 0.015158793143043595
199.1484528 0.017520321803376693
201.0916748 0.005671623149981536
203.1070251 0.006250947703910451
209.1329956 0.004177551603448527
210.1415863 0.007465455314852789
211.1118622 0.025957776330327538
211.1470337 0.03978127407560823
215.1070251 0.004999510095314487
215.1444244 0.003597905064994657
217.1235504 0.005272521587702392
221.1642761 0.003207348297816371
223.1113739 0.004562838053528828
223.1475067 0.017242389875991925
225.127533  0.012713907687515603
225.1636505 0.014289380292914135
229.1213989 0.005842971806411949
238.1725464 0.003540405545111943
239.142868  0.005056977939824259
239.1798096 0.01396917656323882
241.1224823 0.005693090916043323
251.1426544 0.02206225643556166
253.1951599 0.006001713664411352
255.1370697 0.003936239603782257
256.1465149 0.004940087095674849
269.1535034 0.08693491041679127
284.1768799 0.021446866127640858
291.5820312 0.003213525576739611


