PRECURSORMZ: 275.164170564
COMPOUNDNAME: casmi2022challengebonus169
FORMULA: C17H22O3
SMILES: CC1C=CC2CCCCC2C1C3=CC(=C(C(=O)O3)C)O
INCHIKEY: BNZVTXLUECVXIJ-UHFFFAOYSA-N
PRECURSORTYPE: [M+H]+
PRECURSORINTENSITY: 373328277.0547
IONMODE: positive
CHARGE: 1
PARENTMASS: 274.156894564
NUM PEAKS: 124
53.0389328  0.1014601936435572
55.01809692 0.053396147619554454
55.05453873 0.2597927835074845
55.05758286 0.008105582433304875
57.03366852 0.007305716074845289
57.07013321 0.03212429513450303
59.04942322 0.020344802075350454
65.03868103 0.04296476178325469
66.04667664 0.023643090534341236
67.05434418 0.3946498560431579
67.05857849 0.008042084574496764
68.99727631 0.05899312700649299
69.02210236 0.0073638111127816005
69.03359985 0.9961176368413287
69.04270935 0.006745968782652342
69.06996918 0.2294433579088984
71.01285553 0.009042872643098847
71.04896545 0.006896530165504362
77.03868103 0.02810707837401573
79.05426788 0.484640747152853
79.05840302 0.005413367554808582
81.03356171 0.19396009221244764
81.06415558 0.006777920338858468
81.06990051 0.5315049869129654
83.01275635 0.703313305038807
83.04914093 0.043005425030787164
83.08552551 0.006636207693676112
85.02848816 0.024543353848963535
88.87804413 0.005771011847826216
91.05426025 0.2602350715737728
93.03352356 0.03165329627967909
93.06991577 0.5173241644632529
94.04137421 0.007442296628742014
95.04914093 0.14741873700027153
95.08557892 0.18722470332342125
97.02848053 0.05881037612807806
97.06500244 0.038206257147933693
97.56864929 0.005078442266488636
99.04380035 0.008414816156517511
101.0234451 0.02439617952865152
103.0542297 0.019115097848465903
105.0330124 0.006802503341980178
105.0448608 0.020668737592177203
105.0700607 0.11625926157506532
107.049118  0.09543064555062887
107.0855255 0.23352546232945448
109.0284348 0.47668322101295296
109.0647659 0.34277354732624904
109.101181  0.06791457154476943
111.044075  0.06274474627209732
111.0808945 0.005505173470873559
115.0539856 0.009706546885763603
116.0623932 0.004915660217378975
117.0698242 0.07750398164188393
117.9478455 0.005241441655964832
119.0491104 0.025836718204252873
119.0593491 0.005583073386968239
119.0854874 0.056216884222495836
120.0567932 0.029721803792737877
121.0649948 0.06463163395777947
121.1011887 0.04923983302448413
123.0441742 0.06647036877122857
123.0803833 0.03546226649724533
124.995285  0.006956083948260556
125.0232925 1.0
125.0593491 0.044392307120270175
127.0387802 0.08538872356186022
129.0694885 0.027025712100198655
131.085556  0.08797660917899346
133.0647888 0.02740550198928737
133.1006622 0.03700268084843975
135.0438995 0.02204490316207852
135.0803375 0.05551265771461343
135.1167145 0.11877035415653925
137.0476532 0.00916109907629352
137.0596619 0.39198891715806494
137.0957031 0.010654931123164702
140.0466461 0.010107322521655946
141.0431061 0.006764185436623529
141.0546112 0.11038391836393827
141.068161  0.00972711224501107
143.0854797 0.009329349106346186
145.0648956 0.010932429789762636
145.1011963 0.032591480233417465
147.0449066 0.005996573733798062
147.0803223 0.024940912679276124
148.0514221 0.010072417742867778
149.0596161 0.03320408579575961
149.0957794 0.0301859183809421
149.1319733 0.030500085772513858
151.074707  0.04106496651804812
153.0408478 0.010400852247320578
153.0545502 0.26982736048487194
155.0701904 0.007748490949923596
155.0850372 0.0063940337730349515
157.1006622 0.005844093702139718
159.0798187 0.020844311614233328
159.1166534 0.027197657336869987
161.0596924 0.007141833871501151
161.0958405 0.006118931315507143
163.075058  0.03454767805625924
165.0546265 0.34885494770190467
165.0893097 0.014463499450227244
166.0623474 0.24350507279309852
167.0699921 0.03701108523646255
168.0934906 0.0076922607511864215
169.0850372 0.010657855339005368
169.101059  0.006264458136986561
173.132019  0.012278304754692224
175.0745544 0.008811440885680305
175.1116791 0.006924617098906686
177.0539856 0.032376117369945674
177.0908051 0.01219424574051221
177.1272583 0.006933512079207526
179.0694885 0.05591280276917153
181.085022  0.026008095076948276
187.0749969 0.0063922534317346034
191.0699768 0.009326894043018199
191.1425629 0.01968784394428295
193.0858459 0.034382539734897286
201.1273804 0.006434301435877082
207.1013794 0.12932510860662066
221.1166382 0.022830405718519145
275.1642456 0.00866993423040047


PRECURSORMZ: 275.164170564
COMPOUNDNAME: casmi2022challengebonus169
FORMULA: C17H22O3
SMILES: CC1C=CC2CCCCC2C1C3=CC(=C(C(=O)O3)C)O
INCHIKEY: BNZVTXLUECVXIJ-UHFFFAOYSA-N
PRECURSORTYPE: [M+H]+
PRECURSORINTENSITY: 373328277.0547
IONMODE: positive
CHARGE: 1
PARENTMASS: 274.156894564
NUM PEAKS: 124
53.0389328  0.1014601936435572
55.01809692 0.053396147619554454
55.05453873 0.2597927835074845
55.05758286 0.008105582433304875
57.03366852 0.007305716074845289
57.07013321 0.03212429513450303
59.04942322 0.020344802075350454
65.03868103 0.04296476178325469
66.04667664 0.023643090534341236
67.05434418 0.3946498560431579
67.05857849 0.008042084574496764
68.99727631 0.05899312700649299
69.02210236 0.0073638111127816005
69.03359985 0.9961176368413287
69.04270935 0.006745968782652342
69.06996918 0.2294433579088984
71.01285553 0.009042872643098847
71.04896545 0.006896530165504362
77.03868103 0.02810707837401573
79.05426788 0.484640747152853
79.05840302 0.005413367554808582
81.03356171 0.19396009221244764
81.06415558 0.006777920338858468
81.06990051 0.5315049869129654
83.01275635 0.703313305038807
83.04914093 0.043005425030787164
83.08552551 0.006636207693676112
85.02848816 0.024543353848963535
88.87804413 0.005771011847826216
91.05426025 0.2602350715737728
93.03352356 0.03165329627967909
93.06991577 0.5173241644632529
94.04137421 0.007442296628742014
95.04914093 0.14741873700027153
95.08557892 0.18722470332342125
97.02848053 0.05881037612807806
97.06500244 0.038206257147933693
97.56864929 0.005078442266488636
99.04380035 0.008414816156517511
101.0234451 0.02439617952865152
103.0542297 0.019115097848465903
105.0330124 0.006802503341980178
105.0448608 0.020668737592177203
105.0700607 0.11625926157506532
107.049118  0.09543064555062887
107.0855255 0.23352546232945448
109.0284348 0.47668322101295296
109.0647659 0.34277354732624904
109.101181  0.06791457154476943
111.044075  0.06274474627209732
111.0808945 0.005505173470873559
115.0539856 0.009706546885763603
116.0623932 0.004915660217378975
117.0698242 0.07750398164188393
117.9478455 0.005241441655964832
119.0491104 0.025836718204252873
119.0593491 0.005583073386968239
119.0854874 0.056216884222495836
120.0567932 0.029721803792737877
121.0649948 0.06463163395777947
121.1011887 0.04923983302448413
123.0441742 0.06647036877122857
123.0803833 0.03546226649724533
124.995285  0.006956083948260556
125.0232925 1.0
125.0593491 0.044392307120270175
127.0387802 0.08538872356186022
129.0694885 0.027025712100198655
131.085556  0.08797660917899346
133.0647888 0.02740550198928737
133.1006622 0.03700268084843975
135.0438995 0.02204490316207852
135.0803375 0.05551265771461343
135.1167145 0.11877035415653925
137.0476532 0.00916109907629352
137.0596619 0.39198891715806494
137.0957031 0.010654931123164702
140.0466461 0.010107322521655946
141.0431061 0.006764185436623529
141.0546112 0.11038391836393827
141.068161  0.00972711224501107
143.0854797 0.009329349106346186
145.0648956 0.010932429789762636
145.1011963 0.032591480233417465
147.0449066 0.005996573733798062
147.0803223 0.024940912679276124
148.0514221 0.010072417742867778
149.0596161 0.03320408579575961
149.0957794 0.0301859183809421
149.1319733 0.030500085772513858
151.074707  0.04106496651804812
153.0408478 0.010400852247320578
153.0545502 0.26982736048487194
155.0701904 0.007748490949923596
155.0850372 0.0063940337730349515
157.1006622 0.005844093702139718
159.0798187 0.020844311614233328
159.1166534 0.027197657336869987
161.0596924 0.007141833871501151
161.0958405 0.006118931315507143
163.075058  0.03454767805625924
165.0546265 0.34885494770190467
165.0893097 0.014463499450227244
166.0623474 0.24350507279309852
167.0699921 0.03701108523646255
168.0934906 0.0076922607511864215
169.0850372 0.010657855339005368
169.101059  0.006264458136986561
173.132019  0.012278304754692224
175.0745544 0.008811440885680305
175.1116791 0.006924617098906686
177.0539856 0.032376117369945674
177.0908051 0.01219424574051221
177.1272583 0.006933512079207526
179.0694885 0.05591280276917153
181.085022  0.026008095076948276
187.0749969 0.0063922534317346034
191.0699768 0.009326894043018199
191.1425629 0.01968784394428295
193.0858459 0.034382539734897286
201.1273804 0.006434301435877082
207.1013794 0.12932510860662066
221.1166382 0.022830405718519145
275.1642456 0.00866993423040047


