PRECURSORMZ: 235.16925594399999
COMPOUNDNAME: casmi2022challengebonus147
FORMULA: C15H22O2
SMILES: CC1CCC23C1CCC2(CC(=C3C)C(=O)O)C
INCHIKEY: SUFSOKMJLLAQQX-HLHNXRDNSA-N
PRECURSORTYPE: [M+H]+
PRECURSORINTENSITY: 30804968.42187
IONMODE: positive
CHARGE: 1
PARENTMASS: 234.161979944
NUM PEAKS: 102
55.05450058 0.016948715916296767
55.63208008 0.001400955332215769
57.07021713 0.002527138116438447
58.78964615 0.010431340465915633
58.7934494  0.00659573250196337
59.04953003 0.0015598606593987842
61.1555481  0.0012379556782099903
65.03920746 0.001728132646612683
67.05433655 0.027755891850821033
69.03356934 0.0023516992435719535
69.06996918 0.02694333198793854
73.02840424 0.014067089211282479
77.03971863 0.0016051469921886533
79.05425262 0.014362016511874407
81.06990051 0.10912789563893097
81.07537842 0.0026062514862080165
83.04916382 0.007098385352133042
83.08554077 0.019614517030907157
91.0541687  0.011453020364324508
93.06990814 0.06276849166098439
95.0493927  0.0021994207043158583
95.07995605 0.0029318639552152674
95.08550262 0.2960365465384993
97.0650177  0.00655308071639122
97.10112762 0.0075377002463166915
103.5202026 0.0015094882876031763
105.0698929 0.045493191384786004
107.0497818 0.0025062604697860193
107.0784378 0.001502610430021146
107.0854568 0.1161777450033563
109.0647049 0.019002729979596872
109.1011429 0.0841841103679196
109.1224518 0.0015668385302799925
111.0802841 0.016624541203240622
113.0595856 0.002131541989086051
117.0703278 0.0020145525983310294
119.0854645 0.07196428026574476
121.0650711 0.006957829874331061
121.1011353 0.04338756009503771
121.110817  0.002095991277306416
123.0802002 0.03293798818926886
123.1169205 0.011008464876904668
125.0600967 0.015006253474037086
125.0959396 0.025737169527040114
127.0752335 0.002800122343729713
129.0701447 0.001680526575305848
131.0856934 0.008310879224893408
133.0649109 0.005992950793208066
133.0767365 0.001414946959579149
133.10112   0.09150833404085401
135.0801392 0.015959301448250612
135.1166687 0.055652473912385945
137.0597534 0.0025982395399977184
137.0959167 0.014263782723936929
139.0753937 0.026945587210104458
141.0907898 0.0033484364470102385
143.0855103 0.016620392465037423
145.1008911 0.014311519641658464
147.0801392 0.01303700612292818
147.1166534 0.07497282125639754
147.1302032 0.001844346675197279
149.0959625 0.006340423941140028
149.1322174 0.045131704974489456
151.0754089 0.01586557188620149
151.1117249 0.00587507708797091
153.0909424 0.03342440312892177
157.1010742 0.03586078099006906
157.1147614 0.0023479002928140664
159.1165161 0.02142577964356877
161.095993  0.04431833671395558
161.1322632 0.04143993945391785
161.1469574 0.0021981303772953785
163.1121979 0.001868007334405351
163.1478729 0.027035659290984684
165.0905914 0.014028386655518794
171.1165771 0.018697110065454506
173.1323853 0.010864099566068723
175.1115112 0.021752013697821454
175.1479645 0.009000228921632356
179.1065674 0.02782693549467635
187.1493683 0.002375254707444621
189.0908661 0.00605427604632359
189.1304016 0.004504141939371669
189.1482697 0.0019837249239194167
189.1635895 0.1346019400217032
189.1833038 0.0033204262456952055
191.1064301 0.002380429747922569
192.0780792 0.002413642713609337
193.1219025 0.005229589182263076
199.1306458 0.0016645537259421125
199.1480255 0.11920934398240396
207.1012268 0.0024804718074013738
215.1434479 0.006223741586031419
217.0865479 0.0013708996516511144
217.1393127 0.002161428605718872
217.1584778 0.2407239561637875
217.7743073 0.006450758301870773
220.0727692 0.00903125688174411
235.0961456 0.008437324018049737
235.1690826 1.0
235.2267609 0.0044862649507963585
235.2403412 0.0071875443582301015


