PRECURSORMZ: 522.3789192559998
COMPOUNDNAME: casmi2022challengebonus160
FORMULA: C30H48O6
SMILES: CC12CCC34CC3(C(CCC4C1(CCC2C(CCC=C(CO)CO)CO)C)C(=C)CO)CCC(=O)O
INCHIKEY: JKWDYHQUZQNLNR-UHFFFAOYSA-N
PRECURSORTYPE: [M+NH4]+
PRECURSORINTENSITY: 6362491.068359
IONMODE: positive
CHARGE: 1
PARENTMASS: 504.3450962559998
NUM PEAKS: 46
51.88697433 0.046034905241153966
53.03883362 0.07139792638221744
53.57967758 0.04810603562605893
55.05438614 0.29163854644696025
65.03865814 0.05736703586875997
67.05439758 0.7159183128865052
69.06943512 0.15475035532889925
79.05425262 0.8470687426743968
81.06561279 0.05386664842894257
81.06990814 0.8801975502147693
83.04906464 0.10410612400298087
85.02819061 0.047347096425163646
91.05432892 0.6714316332630025
93.06980896 0.6854342949227938
95.04862976 0.06469821773849355
95.08562469 0.5724218765276651
105.0446014 0.05141581360253084
105.0698624 1.0
107.085434  0.7073517712000129
109.1008835 0.21399875083728026
117.0695801 0.26225935501334857
119.08564   0.8215737839930035
121.0646057 0.07281643346789837
121.1007538 0.286373486617127
128.0616302 0.06095408924420386
129.0694733 0.27748947816208214
131.0851898 0.524154811826174
133.1009521 0.43400759236346725
141.0687866 0.08485804289405467
142.0769958 0.11519021933963176
143.0860901 0.4126951816749593
145.0654449 0.05458293761816438
145.1012421 0.5269858255688809
147.1170197 0.22234231812854108
155.0847626 0.10700065027009695
157.1010284 0.2854304991244742
159.1160126 0.236058991306855
168.9643555 0.05330776505312058
169.1010895 0.10169525529044282
171.116684  0.22457372993163346
173.131958  0.18831172092677292
181.1007385 0.05759533492552375
183.1156921 0.08397378483651519
197.1321106 0.0469889110928185
216.0527496 0.047152250237429104
220.0187225 0.08575129200923205


PRECURSORMZ: 522.3789192559998
COMPOUNDNAME: casmi2022challengebonus160
FORMULA: C30H48O6
SMILES: CC12CCC34CC3(C(CCC4C1(CCC2C(CCC=C(CO)CO)CO)C)C(=C)CO)CCC(=O)O
INCHIKEY: JKWDYHQUZQNLNR-UHFFFAOYSA-N
PRECURSORTYPE: [M+NH4]+
PRECURSORINTENSITY: 6362491.068359
IONMODE: positive
CHARGE: 1
PARENTMASS: 504.3450962559998
NUM PEAKS: 46
51.88697433 0.046034905241153966
53.03883362 0.07139792638221744
53.57967758 0.04810603562605893
55.05438614 0.29163854644696025
65.03865814 0.05736703586875997
67.05439758 0.7159183128865052
69.06943512 0.15475035532889925
79.05425262 0.8470687426743968
81.06561279 0.05386664842894257
81.06990814 0.8801975502147693
83.04906464 0.10410612400298087
85.02819061 0.047347096425163646
91.05432892 0.6714316332630025
93.06980896 0.6854342949227938
95.04862976 0.06469821773849355
95.08562469 0.5724218765276651
105.0446014 0.05141581360253084
105.0698624 1.0
107.085434  0.7073517712000129
109.1008835 0.21399875083728026
117.0695801 0.26225935501334857
119.08564   0.8215737839930035
121.0646057 0.07281643346789837
121.1007538 0.286373486617127
128.0616302 0.06095408924420386
129.0694733 0.27748947816208214
131.0851898 0.524154811826174
133.1009521 0.43400759236346725
141.0687866 0.08485804289405467
142.0769958 0.11519021933963176
143.0860901 0.4126951816749593
145.0654449 0.05458293761816438
145.1012421 0.5269858255688809
147.1170197 0.22234231812854108
155.0847626 0.10700065027009695
157.1010284 0.2854304991244742
159.1160126 0.236058991306855
168.9643555 0.05330776505312058
169.1010895 0.10169525529044282
171.116684  0.22457372993163346
173.131958  0.18831172092677292
181.1007385 0.05759533492552375
183.1156921 0.08397378483651519
197.1321106 0.0469889110928185
216.0527496 0.047152250237429104
220.0187225 0.08575129200923205


