PRECURSORMZ: 417.08272077599986
COMPOUNDNAME: casmi2022challengebonus222
FORMULA: C20H18O10
SMILES: CC1=CC(=C(C(=C1C(=O)OC)OC2=C(C(=C3C(OC(=O)C3=C2O)OC)C)O)C=O)O
INCHIKEY: WPAOSTUNVIZRNC-HXUWFJFHSA-N
PRECURSORTYPE: [M-H]-
PRECURSORINTENSITY: 350397414.5937
IONMODE: negative
CHARGE: -1
PARENTMASS: 418.08999677599985
NUM PEAKS: 97
51.71201706 0.0043807958457661575
52.02418518 0.004410749696703179
57.11132431 0.004223322678037122
63.51344299 0.008218674790856216
68.99686432 0.13312569144351666
73.33828735 0.006061930921531431
78.26644897 0.010819952992997798
78.27068329 0.007219993321719829
123.0437851 0.025188301067494957
125.9945679 0.03682333297745591
148.0152283 0.012143078937903852
149.0229034 0.02713546229564511
150.0313263 0.006592425904975693
151.0387268 0.00570826163933734
162.0304108 0.005957553739350569
169.0643158 0.009004849394905392
177.0182495 0.023702507456833555
181.0649414 0.07619056732582948
182.0724487 0.009125576663034657
185.0595856 0.010485218306483468
187.0389099 0.006848452391639329
193.0137329 0.04583239572219316
193.0621948 0.005968509074702677
195.0799561 0.00650074777527977
197.0600433 0.10838226218805799
198.0678406 0.036240780371677925
199.0388947 0.021308350309029767
202.0624237 0.006972385041865374
207.0294952 0.009327459861088797
209.0385895 0.010685107024699953
209.060318  0.3863275726962601
210.0675049 0.05163793585830082
211.0393372 0.03310967767460765
211.0756226 0.012079990438511934
213.0553436 0.03994732313235299
214.0623322 0.00524647831896893
215.0704956 0.006533836830515608
218.991394  0.011666866704680326
220.7247467 0.006913806695221539
223.0755615 0.00894774433502644
224.0485229 0.009341490950758008
225.0560913 0.33612190758538424
226.0628357 0.4106451291022597
227.0334473 0.023457700477997164
227.0711823 0.010899908301487453
229.0503693 0.0052639499087077145
235.0404968 0.0074235263685146205
236.0482178 0.011377815529678346
237.0551453 0.37581620086774586
238.0341492 0.005223917721396952
238.0633545 0.011593389209235786
239.0347748 0.03776691951128303
239.0713043 0.04250905413387674
240.0775146 0.03923407354121152
241.050705  0.02997953332912231
241.0862885 0.02731778153279954
242.0578003 0.033711193483575395
243.0290833 0.007151783184053625
251.0707855 0.022273320956580207
252.0422516 0.051795098366350975
253.0501709 0.5646728834218793
254.0579834 0.9081187998943582
255.0303497 0.006534983365877237
255.0651703 0.037938739792268285
256.0365295 0.008946511530142474
257.0453186 0.0540548735239097
257.0812988 0.059942999965442126
263.0346985 0.02194444723367667
264.0413818 0.011385244542430888
265.050354  0.02059939899626546
266.021759  0.007504170045213598
267.0643311 0.01228358293528844
269.0454102 0.03423391348219308
269.0818176 0.12569467616527544
270.0533447 0.09019578150224672
271.0602417 0.02012166430711924
273.039917  0.010045125736586167
279.0645752 0.0059761548787419195
280.0361023 0.03518350759311974
281.045105  0.6816147200057123
282.0525818 0.04861304926991346
283.0241089 0.02752306008469654
283.0588074 0.008519074207480428
285.0765381 0.09816938111886031
289.0715027 0.01142798058642878
295.059967  0.03773012667748717
297.0411987 0.053662028044743064
298.047699  0.1448230019027427
299.055603  0.00975586179322858
309.0391846 0.06178935369226833
313.0714722 1.0
313.1579895 0.00741824649495066
315.0514526 0.0551611044798903
325.0338745 0.0540173368948539
329.0690308 0.007235403829761743
341.0652466 0.04008191431501491
357.062561  0.04293245958559848


PRECURSORMZ: 417.08272077599986
COMPOUNDNAME: casmi2022challengebonus222
FORMULA: C20H18O10
SMILES: CC1=CC(=C(C(=C1C(=O)OC)OC2=C(C(=C3C(OC(=O)C3=C2O)OC)C)O)C=O)O
INCHIKEY: WPAOSTUNVIZRNC-HXUWFJFHSA-N
PRECURSORTYPE: [M-H]-
PRECURSORINTENSITY: 350397414.5937
IONMODE: negative
CHARGE: -1
PARENTMASS: 418.08999677599985
NUM PEAKS: 97
51.71201706 0.0043807958457661575
52.02418518 0.004410749696703179
57.11132431 0.004223322678037122
63.51344299 0.008218674790856216
68.99686432 0.13312569144351666
73.33828735 0.006061930921531431
78.26644897 0.010819952992997798
78.27068329 0.007219993321719829
123.0437851 0.025188301067494957
125.9945679 0.03682333297745591
148.0152283 0.012143078937903852
149.0229034 0.02713546229564511
150.0313263 0.006592425904975693
151.0387268 0.00570826163933734
162.0304108 0.005957553739350569
169.0643158 0.009004849394905392
177.0182495 0.023702507456833555
181.0649414 0.07619056732582948
182.0724487 0.009125576663034657
185.0595856 0.010485218306483468
187.0389099 0.006848452391639329
193.0137329 0.04583239572219316
193.0621948 0.005968509074702677
195.0799561 0.00650074777527977
197.0600433 0.10838226218805799
198.0678406 0.036240780371677925
199.0388947 0.021308350309029767
202.0624237 0.006972385041865374
207.0294952 0.009327459861088797
209.0385895 0.010685107024699953
209.060318  0.3863275726962601
210.0675049 0.05163793585830082
211.0393372 0.03310967767460765
211.0756226 0.012079990438511934
213.0553436 0.03994732313235299
214.0623322 0.00524647831896893
215.0704956 0.006533836830515608
218.991394  0.011666866704680326
220.7247467 0.006913806695221539
223.0755615 0.00894774433502644
224.0485229 0.009341490950758008
225.0560913 0.33612190758538424
226.0628357 0.4106451291022597
227.0334473 0.023457700477997164
227.0711823 0.010899908301487453
229.0503693 0.0052639499087077145
235.0404968 0.0074235263685146205
236.0482178 0.011377815529678346
237.0551453 0.37581620086774586
238.0341492 0.005223917721396952
238.0633545 0.011593389209235786
239.0347748 0.03776691951128303
239.0713043 0.04250905413387674
240.0775146 0.03923407354121152
241.050705  0.02997953332912231
241.0862885 0.02731778153279954
242.0578003 0.033711193483575395
243.0290833 0.007151783184053625
251.0707855 0.022273320956580207
252.0422516 0.051795098366350975
253.0501709 0.5646728834218793
254.0579834 0.9081187998943582
255.0303497 0.006534983365877237
255.0651703 0.037938739792268285
256.0365295 0.008946511530142474
257.0453186 0.0540548735239097
257.0812988 0.059942999965442126
263.0346985 0.02194444723367667
264.0413818 0.011385244542430888
265.050354  0.02059939899626546
266.021759  0.007504170045213598
267.0643311 0.01228358293528844
269.0454102 0.03423391348219308
269.0818176 0.12569467616527544
270.0533447 0.09019578150224672
271.0602417 0.02012166430711924
273.039917  0.010045125736586167
279.0645752 0.0059761548787419195
280.0361023 0.03518350759311974
281.045105  0.6816147200057123
282.0525818 0.04861304926991346
283.0241089 0.02752306008469654
283.0588074 0.008519074207480428
285.0765381 0.09816938111886031
289.0715027 0.01142798058642878
295.059967  0.03773012667748717
297.0411987 0.053662028044743064
298.047699  0.1448230019027427
299.055603  0.00975586179322858
309.0391846 0.06178935369226833
313.0714722 1.0
313.1579895 0.00741824649495066
315.0514526 0.0551611044798903
325.0338745 0.0540173368948539
329.0690308 0.007235403829761743
341.0652466 0.04008191431501491
357.062561  0.04293245958559848


