PRECURSORMZ: 319.1751291719999
COMPOUNDNAME: casmi2022challengebonus116
FORMULA: C15H26O7
SMILES: CCC(C)C=CC=CC(=O)OCC(C(C(C(CO)O)O)O)O
INCHIKEY: DBRPBQZVPSHBSR-UHFFFAOYSA-N
PRECURSORTYPE: [M+H]+
PRECURSORINTENSITY: 23436523.61914
IONMODE: positive
CHARGE: 1
PARENTMASS: 318.1678531719999
NUM PEAKS: 55
53.03888321 0.035560856749260066
53.04161835 0.001675797913790468
55.01807785 0.0011332543796845219
55.05452347 0.013666394156422679
57.03385544 0.0038964545915735078
61.02858353 0.002059962296114769
65.03884125 0.005319682184328148
67.04219818 0.0008166616877005946
67.04576874 0.0053186695211696194
67.05128479 0.006907529019893798
67.05432892 0.3786371475113814
67.06513977 0.0039000247373716245
68.06829071 0.000885219799928105
69.03354645 0.036223415029607645
69.06996918 0.007123478522088183
71.04927826 0.0014478435714247498
79.05445099 0.006958244150553698
80.03649902 0.0009884432980980407
80.60172272 0.0009335164017283126
81.03351593 0.1611418128395564
81.0640564  0.0011645913727480685
81.06989288 0.09641694223011729
83.04916382 0.010643642945476142
85.0284729  0.008965165922835864
87.04409027 0.0046685037853648765
91.05442047 0.003966223717648948
93.06959534 0.007560957003912427
95.0421524  0.0014841973124374288
95.04412079 0.0014536413095936345
95.0491333  0.06283377164442709
95.08548737 0.030854979395440348
99.04417419 0.007508399819307037
103.0390396 0.0018341309142567448
107.0855331 0.01989595002340768
109.0647507 0.004985649626688441
109.0735474 0.002136379044329404
109.0834045 0.012016271035776217
109.0876389 0.006088859999890809
109.0947876 0.018433313872428823
109.1011353 1.0
109.1191559 0.0035372027559387605
109.1239853 0.008653360971642243
111.0442734 0.0070158696492891364
119.08564   0.006547418136670145
129.0546112 0.005409195742826194
137.0839081 0.00141232022086648
137.085907  0.0012438449273577095
137.095993  0.06087994687719021
137.1083679 0.0013449445486580847
147.0652313 0.004590122523938278
177.8709869 0.0010427598141648541
220.0170593 0.0014883645929443586
251.3111267 0.0010364107593800649
253.8506927 0.0010288297810358206
262.2659912 0.0010564023595873902


PRECURSORMZ: 319.1751291719999
COMPOUNDNAME: casmi2022challengebonus116
FORMULA: C15H26O7
SMILES: CCC(C)C=CC=CC(=O)OCC(C(C(C(CO)O)O)O)O
INCHIKEY: DBRPBQZVPSHBSR-UHFFFAOYSA-N
PRECURSORTYPE: [M+H]+
PRECURSORINTENSITY: 23436523.61914
IONMODE: positive
CHARGE: 1
PARENTMASS: 318.1678531719999
NUM PEAKS: 55
53.03888321 0.035560856749260066
53.04161835 0.001675797913790468
55.01807785 0.0011332543796845219
55.05452347 0.013666394156422679
57.03385544 0.0038964545915735078
61.02858353 0.002059962296114769
65.03884125 0.005319682184328148
67.04219818 0.0008166616877005946
67.04576874 0.0053186695211696194
67.05128479 0.006907529019893798
67.05432892 0.3786371475113814
67.06513977 0.0039000247373716245
68.06829071 0.000885219799928105
69.03354645 0.036223415029607645
69.06996918 0.007123478522088183
71.04927826 0.0014478435714247498
79.05445099 0.006958244150553698
80.03649902 0.0009884432980980407
80.60172272 0.0009335164017283126
81.03351593 0.1611418128395564
81.0640564  0.0011645913727480685
81.06989288 0.09641694223011729
83.04916382 0.010643642945476142
85.0284729  0.008965165922835864
87.04409027 0.0046685037853648765
91.05442047 0.003966223717648948
93.06959534 0.007560957003912427
95.0421524  0.0014841973124374288
95.04412079 0.0014536413095936345
95.0491333  0.06283377164442709
95.08548737 0.030854979395440348
99.04417419 0.007508399819307037
103.0390396 0.0018341309142567448
107.0855331 0.01989595002340768
109.0647507 0.004985649626688441
109.0735474 0.002136379044329404
109.0834045 0.012016271035776217
109.0876389 0.006088859999890809
109.0947876 0.018433313872428823
109.1011353 1.0
109.1191559 0.0035372027559387605
109.1239853 0.008653360971642243
111.0442734 0.0070158696492891364
119.08564   0.006547418136670145
129.0546112 0.005409195742826194
137.0839081 0.00141232022086648
137.085907  0.0012438449273577095
137.095993  0.06087994687719021
137.1083679 0.0013449445486580847
147.0652313 0.004590122523938278
177.8709869 0.0010427598141648541
220.0170593 0.0014883645929443586
251.3111267 0.0010364107593800649
253.8506927 0.0010288297810358206
262.2659912 0.0010564023595873902


