PRECURSORMZ: 480.2075563999998
COMPOUNDNAME: casmi2022challengebonus151
FORMULA: C20H30O12
SMILES: CC1C(C(C(C(O1)OCC2C(C(C(C(O2)OC3=C(C=CC(=C3)CCO)O)O)O)O)O)O)O
INCHIKEY: YXWUKVNWHJHQJJ-ULHBTYKESA-N
PRECURSORTYPE: [M+NH4]+
PRECURSORINTENSITY: 1156790.40625
IONMODE: positive
CHARGE: 1
PARENTMASS: 462.17373339999983
NUM PEAKS: 10
57.03393936 0.20544687597052144
69.03358459 0.1476691760476484
69.95606995 0.12426125824622389
71.04916382 1.0
85.02841187 0.8637858537846443
97.02902222 0.1854566019681748
116.2749634 0.13314009052072912
151.0751953 0.1428345995954091
224.3869324 0.1338951498099047
391.5187378 0.14305893904451203


PRECURSORMZ: 480.2075563999998
COMPOUNDNAME: casmi2022challengebonus151
FORMULA: C20H30O12
SMILES: CC1C(C(C(C(O1)OCC2C(C(C(C(O2)OC3=C(C=CC(=C3)CCO)O)O)O)O)O)O)O
INCHIKEY: YXWUKVNWHJHQJJ-ULHBTYKESA-N
PRECURSORTYPE: [M+NH4]+
PRECURSORINTENSITY: 1156790.40625
IONMODE: positive
CHARGE: 1
PARENTMASS: 462.17373339999983
NUM PEAKS: 10
57.03393936 0.20544687597052144
69.03358459 0.1476691760476484
69.95606995 0.12426125824622389
71.04916382 1.0
85.02841187 0.8637858537846443
97.02902222 0.1854566019681748
116.2749634 0.13314009052072912
151.0751953 0.1428345995954091
224.3869324 0.1338951498099047
391.5187378 0.14305893904451203


