PRECURSORMZ: 235.16925594399999
COMPOUNDNAME: casmi2022challengebonus204
FORMULA: C15H22O2
SMILES: CC(=CCCC(=CCCC(=C)C=C)C(=O)O)C
INCHIKEY: HBQSMPQLVZXNJG-UHFFFAOYSA-N
PRECURSORTYPE: [M+H]+
PRECURSORINTENSITY: 3757685.558594
IONMODE: positive
CHARGE: 1
PARENTMASS: 234.161979944
NUM PEAKS: 67
55.05462265 0.13308507869220348
57.07013321 0.026733478745359248
59.0494957  0.023445989155131703
67.05428314 0.11612901038215716
68.64598083 0.012934598838884644
69.06997681 0.44695598849852297
79.05443573 0.11628087261512886
81.06993103 0.32373835608630924
83.04950714 0.014756762019077128
83.08558655 0.11162704065334594
91.0541687  0.17303648718442377
93.06994629 0.7546543338440618
93.07662964 0.01802097069810503
95.08556366 0.5847178266039326
97.06468964 0.01875998776337542
97.10122681 0.0161192102125846
105.06987   0.32540546212438887
107.0855484 0.3656771816798181
109.0642014 0.017551701586575055
109.1011429 0.24123755160573931
111.0803223 0.05309763333861493
117.0698395 0.023047142696051043
119.0501328 0.013674515619947671
119.0854187 0.5375998941591479
119.0942001 0.022270146301377164
121.0646667 0.02795506327242131
121.1013031 0.2677401920451316
123.0439987 0.0222572350737274
123.0802765 0.029620250528861827
123.116394  0.032560169809543266
125.0963516 0.03288014424439444
131.0856323 0.026674379046762814
133.0643463 0.02619745317022143
133.1010742 0.7638535667133262
135.0803833 0.030894884624853836
135.1168213 0.09919313977357813
137.0962524 0.07485729650656639
139.0753021 0.06028237806610901
143.0856476 0.0657127014800288
147.0802002 0.16739648102669544
147.1167755 0.3148385878041333
149.0966492 0.023183775556090774
149.1327515 0.09346241533368366
151.0751648 0.11403900119844591
151.1116791 0.01599270986611461
153.0909882 0.06821785911611138
157.1010437 0.06067406658220029
159.1168365 0.059767514173645196
161.0963287 0.12086251921597077
161.1326599 0.12841216296279176
165.0907898 0.07956096170633316
171.1177826 0.014726698046468836
175.1117554 0.08513520292398084
175.1483459 0.022289311165838082
176.5312958 0.01456764267754229
179.1067352 0.13393405541054557
189.1317596 0.017641893504399937
189.1637421 1.0
189.1834869 0.029535056012020888
191.1796417 0.08924151804259448
199.1485138 0.056526395139703464
207.1747894 0.01909037319525565
216.9689636 0.07242778844325225
217.1586151 0.2992848642685083
235.131485  0.014296274317298262
235.1691284 0.21675634609331895
241.9229736 0.015011906422604504


PRECURSORMZ: 235.16925594399999
COMPOUNDNAME: casmi2022challengebonus204
FORMULA: C15H22O2
SMILES: CC(=CCCC(=CCCC(=C)C=C)C(=O)O)C
INCHIKEY: HBQSMPQLVZXNJG-UHFFFAOYSA-N
PRECURSORTYPE: [M+H]+
PRECURSORINTENSITY: 3757685.558594
IONMODE: positive
CHARGE: 1
PARENTMASS: 234.161979944
NUM PEAKS: 67
55.05462265 0.13308507869220348
57.07013321 0.026733478745359248
59.0494957  0.023445989155131703
67.05428314 0.11612901038215716
68.64598083 0.012934598838884644
69.06997681 0.44695598849852297
79.05443573 0.11628087261512886
81.06993103 0.32373835608630924
83.04950714 0.014756762019077128
83.08558655 0.11162704065334594
91.0541687  0.17303648718442377
93.06994629 0.7546543338440618
93.07662964 0.01802097069810503
95.08556366 0.5847178266039326
97.06468964 0.01875998776337542
97.10122681 0.0161192102125846
105.06987   0.32540546212438887
107.0855484 0.3656771816798181
109.0642014 0.017551701586575055
109.1011429 0.24123755160573931
111.0803223 0.05309763333861493
117.0698395 0.023047142696051043
119.0501328 0.013674515619947671
119.0854187 0.5375998941591479
119.0942001 0.022270146301377164
121.0646667 0.02795506327242131
121.1013031 0.2677401920451316
123.0439987 0.0222572350737274
123.0802765 0.029620250528861827
123.116394  0.032560169809543266
125.0963516 0.03288014424439444
131.0856323 0.026674379046762814
133.0643463 0.02619745317022143
133.1010742 0.7638535667133262
135.0803833 0.030894884624853836
135.1168213 0.09919313977357813
137.0962524 0.07485729650656639
139.0753021 0.06028237806610901
143.0856476 0.0657127014800288
147.0802002 0.16739648102669544
147.1167755 0.3148385878041333
149.0966492 0.023183775556090774
149.1327515 0.09346241533368366
151.0751648 0.11403900119844591
151.1116791 0.01599270986611461
153.0909882 0.06821785911611138
157.1010437 0.06067406658220029
159.1168365 0.059767514173645196
161.0963287 0.12086251921597077
161.1326599 0.12841216296279176
165.0907898 0.07956096170633316
171.1177826 0.014726698046468836
175.1117554 0.08513520292398084
175.1483459 0.022289311165838082
176.5312958 0.01456764267754229
179.1067352 0.13393405541054557
189.1317596 0.017641893504399937
189.1637421 1.0
189.1834869 0.029535056012020888
191.1796417 0.08924151804259448
199.1485138 0.056526395139703464
207.1747894 0.01909037319525565
216.9689636 0.07242778844325225
217.1586151 0.2992848642685083
235.131485  0.014296274317298262
235.1691284 0.21675634609331895
241.9229736 0.015011906422604504


