PRECURSORMZ: 557.1993319079999
COMPOUNDNAME: casmi2022challengebonus46
FORMULA: C27H34O11
SMILES: COC1=C(C=C(C=C1)CC2C(COC2=O)CC3=CC(=C(C=C3)OC4C(C(C(C(O4)CO)O)O)O)OC)OC
INCHIKEY: AEMJDNJKSCBKRL-UHFFFAOYSA-N
PRECURSORTYPE: [M+Na]+
PRECURSORINTENSITY: 12559165.04492
IONMODE: positive
CHARGE: 1
PARENTMASS: 534.2101139079998
NUM PEAKS: 12
70.67700958 0.13930949555229055
98.57298279 0.15951388754753695
99.59745789 0.14327161417691983
108.06427   0.16503479216938355
146.9333038 0.1328990808487373
159.0417786 0.29400551312637846
170.7778625 0.15341743628866872
181.0343933 0.18902168030644628
281.0656128 1.0
299.0737305 0.30488828765412923
351.0699463 0.15939780666259756
461.55896   0.16633150341242384


