PRECURSORMZ: 348.21693931199997
COMPOUNDNAME: casmi2022challengebonus137
FORMULA: C20H26O4
SMILES: CC1=CC(=O)OC1=CC=C(C)CCC=C(CCC=C(C)C)C(=O)O
INCHIKEY: XMGYICKYGJRMIY-UHFFFAOYSA-N
PRECURSORTYPE: [M+NH4]+
PRECURSORINTENSITY: 37535549.89844
IONMODE: positive
CHARGE: 1
PARENTMASS: 330.183116312
NUM PEAKS: 66
55.2657547  0.0031460943003844954
57.2228775  0.0029792563587528135
69.03359222 0.0044922973519463056
72.84589386 0.0033549817128923462
77.03983307 0.003233630929788291
78.8456192  0.0038681150485247984
81.0697937  0.008188978264314218
83.0490799  0.006512533267927423
84.35258484 0.0031237264945329
91.05438232 0.00594594058318932
93.06985474 0.004067345851222705
95.08552551 0.005096228450776905
105.0700378 0.008357022089240676
107.0772018 0.0078025025526279376
107.0854874 0.23097668317694725
109.0284042 0.00352923730238838
111.0436935 0.005381023796744188
119.0849915 0.004881028726618687
121.064827  0.007369235978738891
123.0428391 0.0038470775316781867
123.0804214 0.007811481577364389
131.085022  0.003920365446797579
133.1016693 0.003927491337708828
135.0803375 0.7122882488021277
137.0966797 0.004941177012880881
149.0960541 0.03240750072115775
150.1039886 0.06702476860565175
157.1005096 0.003790158340479505
159.080307  0.0044749783729023385
159.1166992 0.005034712383377964
161.095993  0.008615785284725992
163.0343018 0.005629221368641356
163.0751648 1.0
173.0959167 0.005780095160538528
175.1487579 0.008106660539661583
183.115799  0.00395047231033464
185.1315002 0.00463220060523153
189.0908203 0.09135870002437889
196.8768921 0.0038193640295023233
199.1107788 0.015945154175498993
201.1268463 0.0069698738805040305
203.142868  0.10440089023935457
209.1307678 0.005048808402434468
211.0756531 0.004788372035356746
211.1118622 0.008734805761417807
213.1273193 0.017199530475262587
217.1223602 0.004864722716809336
217.4266663 0.01419450066173749
225.0901794 0.004857019787905456
225.1266937 0.020409186890931456
227.1070251 0.013789769690224137
235.1117401 0.013550413103850729
238.4956665 0.003950100797391931
239.1078491 0.004594021004035726
239.1789551 0.007689692817993047
249.1626282 0.005561736553854594
253.1212616 0.03598952353679143
253.1556396 0.007601281599404855
254.7224884 0.003743301355789688
257.1559448 0.0038480703914966032
267.1743469 0.08852306784257698
271.1298218 0.004925630729997527
277.1577148 0.020644036241383407
295.1688232 0.05971423371688629
313.179718  0.05278124323232937
336.561676  0.0034299983561268043


