PRECURSORMZ: 275.127785056
COMPOUNDNAME: casmi2022challengebonus205
FORMULA: C16H18O4
SMILES: COC1=CC(=CC(=C1OC)O)CCC2=CC(=CC=C2)O
INCHIKEY: SXTIQENJRJOCLX-UHFFFAOYSA-N
PRECURSORTYPE: [M+H]+
PRECURSORINTENSITY: 14711488.0293
IONMODE: positive
CHARGE: 1
PARENTMASS: 274.120509056
NUM PEAKS: 86
51.02338791 0.00791972881367194
53.03888702 0.11733478514898815
55.01805496 0.0299573086524672
60.96693039 0.004531655418415
63.70562363 0.004209805067190737
65.03871155 0.019622883690975725
74.72216034 0.004126563163940129
77.03855896 0.05702561480851968
78.04624939 0.07614992431083019
79.05426788 0.10131599564455304
81.0333252  0.0090031952116641
81.06970978 0.017756483374940246
91.04763794 0.009718030454931833
91.05425262 0.6254369256918255
91.06105042 0.008328604696712254
92.06184387 0.009541856442874594
93.06990814 0.5594683698943007
94.04123688 0.008870596417379296
95.04213715 0.006706033057576969
95.04914093 0.25027274658734794
95.0545578  0.005099904309635141
103.0325089 0.004702241544722961
103.0460892 0.01074807623360068
103.0541992 0.6961852658416104
105.0330429 0.0404816188187178
105.0447617 0.2101440617198704
106.0412827 0.1147099776916131
107.0491104 0.2841031497317682
107.0575027 0.005505094080310193
108.056839  0.007561540606575662
109.064743  0.00935220444707078
111.0809097 0.005612983514367748
115.0544128 0.00702327275986615
119.0491409 0.03807421522281829
120.0207062 0.005557213792027365
120.0568085 0.05765467148244542
121.0647202 1.0
121.0862198 0.0060423062622828915
122.0356522 0.0048373583317840975
123.0439606 0.15289395548945664
123.0513306 0.004599820072236681
124.0518417 0.11376647899293568
125.0598145 0.02926157247569979
131.049057  0.007235642295639242
133.0285492 0.041851712301481915
134.0361328 0.12088483295267435
134.0543671 0.005157064986455622
135.0440216 0.007057122085303022
137.0595703 0.04744509547458437
138.0312958 0.006427661652812493
139.0750427 0.04609238062357253
141.0700531 0.021608296927285282
147.0442505 0.0415007137355925
148.0523987 0.03463270502469857
151.0388489 0.12663228342274394
152.0468292 0.21015861528655655
152.0606842 0.016266060710681467
153.0545654 0.0643285640303819
153.0698853 0.05180313512508631
154.077713  0.032089748101131355
155.0855865 0.03950302756679237
157.0650635 0.008238193485419876
158.0726929 0.004855081797418601
165.0698853 0.17911803526849737
166.0624695 0.15730535932437456
166.0771332 0.011294133757369734
167.0701904 0.7573488606788124
167.0831604 0.02966197482339194
168.0570374 0.009000512063791448
168.0754852 0.007332374216550783
181.0645905 0.04615724093057842
181.0855713 0.03379557284750624
182.0726013 0.046585658230201304
183.0808411 0.05609944494608807
185.0601654 0.007137680425718468
193.0618896 0.005508104633637903
194.0720978 0.0051060129733892816
195.0792694 0.008962240897381506
197.0592804 0.008132431149413076
197.0954285 0.008695864815159165
199.0739288 0.00549965931574339
210.0673065 0.026130882509162373
211.0754395 0.032027975115525575
213.0558472 0.007898474431667371
228.0765839 0.008744061885855506
298.8143921 0.004292496315132607


PRECURSORMZ: 275.127785056
COMPOUNDNAME: casmi2022challengebonus205
FORMULA: C16H18O4
SMILES: COC1=CC(=CC(=C1OC)O)CCC2=CC(=CC=C2)O
INCHIKEY: SXTIQENJRJOCLX-UHFFFAOYSA-N
PRECURSORTYPE: [M+H]+
PRECURSORINTENSITY: 14711488.0293
IONMODE: positive
CHARGE: 1
PARENTMASS: 274.120509056
NUM PEAKS: 86
51.02338791 0.00791972881367194
53.03888702 0.11733478514898815
55.01805496 0.0299573086524672
60.96693039 0.004531655418415
63.70562363 0.004209805067190737
65.03871155 0.019622883690975725
74.72216034 0.004126563163940129
77.03855896 0.05702561480851968
78.04624939 0.07614992431083019
79.05426788 0.10131599564455304
81.0333252  0.0090031952116641
81.06970978 0.017756483374940246
91.04763794 0.009718030454931833
91.05425262 0.6254369256918255
91.06105042 0.008328604696712254
92.06184387 0.009541856442874594
93.06990814 0.5594683698943007
94.04123688 0.008870596417379296
95.04213715 0.006706033057576969
95.04914093 0.25027274658734794
95.0545578  0.005099904309635141
103.0325089 0.004702241544722961
103.0460892 0.01074807623360068
103.0541992 0.6961852658416104
105.0330429 0.0404816188187178
105.0447617 0.2101440617198704
106.0412827 0.1147099776916131
107.0491104 0.2841031497317682
107.0575027 0.005505094080310193
108.056839  0.007561540606575662
109.064743  0.00935220444707078
111.0809097 0.005612983514367748
115.0544128 0.00702327275986615
119.0491409 0.03807421522281829
120.0207062 0.005557213792027365
120.0568085 0.05765467148244542
121.0647202 1.0
121.0862198 0.0060423062622828915
122.0356522 0.0048373583317840975
123.0439606 0.15289395548945664
123.0513306 0.004599820072236681
124.0518417 0.11376647899293568
125.0598145 0.02926157247569979
131.049057  0.007235642295639242
133.0285492 0.041851712301481915
134.0361328 0.12088483295267435
134.0543671 0.005157064986455622
135.0440216 0.007057122085303022
137.0595703 0.04744509547458437
138.0312958 0.006427661652812493
139.0750427 0.04609238062357253
141.0700531 0.021608296927285282
147.0442505 0.0415007137355925
148.0523987 0.03463270502469857
151.0388489 0.12663228342274394
152.0468292 0.21015861528655655
152.0606842 0.016266060710681467
153.0545654 0.0643285640303819
153.0698853 0.05180313512508631
154.077713  0.032089748101131355
155.0855865 0.03950302756679237
157.0650635 0.008238193485419876
158.0726929 0.004855081797418601
165.0698853 0.17911803526849737
166.0624695 0.15730535932437456
166.0771332 0.011294133757369734
167.0701904 0.7573488606788124
167.0831604 0.02966197482339194
168.0570374 0.009000512063791448
168.0754852 0.007332374216550783
181.0645905 0.04615724093057842
181.0855713 0.03379557284750624
182.0726013 0.046585658230201304
183.0808411 0.05609944494608807
185.0601654 0.007137680425718468
193.0618896 0.005508104633637903
194.0720978 0.0051060129733892816
195.0792694 0.008962240897381506
197.0592804 0.008132431149413076
197.0954285 0.008695864815159165
199.0739288 0.00549965931574339
210.0673065 0.026130882509162373
211.0754395 0.032027975115525575
213.0558472 0.007898474431667371
228.0765839 0.008744061885855506
298.8143921 0.004292496315132607


