PRECURSORMZ: 237.149618564
COMPOUNDNAME: casmi2022challengebonus11
FORMULA: C14H22O3
SMILES: CC1(CCCC2(C1CC(C(=C2)C(=O)O)O)C)C
INCHIKEY: LQZXAHKUYJVAAR-UHFFFAOYSA-N
PRECURSORTYPE: [M-H]-
PRECURSORINTENSITY: 35882627.67383
IONMODE: negative
CHARGE: -1
PARENTMASS: 238.156894564
NUM PEAKS: 23
57.03318405 0.00048735513360481983
57.77555084 0.0005857074587867673
59.14922714 0.0004932799744944864
59.28554916 0.009990675247245388
59.28938675 0.006687120597378481
62.91630173 0.0004900805503381004
69.03318787 0.007476500377184295
71.04863739 0.0011092802793918634
122.5135269 0.0006155285141886228
163.1117401 0.0006667667249438815
177.1277008 0.00210209855043711
191.1430664 0.02791493737509446
193.158783  0.05233609215196658
200.5743408 0.0005632453241266569
216.8806915 0.0030316054438352053
235.1327515 0.0022249597429623335
237.0447693 0.0007954920674062144
237.0907288 0.01267927087699768
237.1029205 0.0030426223799156224
237.1488342 1.0
237.201828  0.002404177472553626
237.2082367 0.0016461803226647076
237.2239227 0.006833151828939717


PRECURSORMZ: 237.149618564
COMPOUNDNAME: casmi2022challengebonus11
FORMULA: C14H22O3
SMILES: CC1(CCCC2(C1CC(C(=C2)C(=O)O)O)C)C
INCHIKEY: LQZXAHKUYJVAAR-UHFFFAOYSA-N
PRECURSORTYPE: [M-H]-
PRECURSORINTENSITY: 35882627.67383
IONMODE: negative
CHARGE: -1
PARENTMASS: 238.156894564
NUM PEAKS: 23
57.03318405 0.00048735513360481983
57.77555084 0.0005857074587867673
59.14922714 0.0004932799744944864
59.28554916 0.009990675247245388
59.28938675 0.006687120597378481
62.91630173 0.0004900805503381004
69.03318787 0.007476500377184295
71.04863739 0.0011092802793918634
122.5135269 0.0006155285141886228
163.1117401 0.0006667667249438815
177.1277008 0.00210209855043711
191.1430664 0.02791493737509446
193.158783  0.05233609215196658
200.5743408 0.0005632453241266569
216.8806915 0.0030316054438352053
235.1327515 0.0022249597429623335
237.0447693 0.0007954920674062144
237.0907288 0.01267927087699768
237.1029205 0.0030426223799156224
237.1488342 1.0
237.201828  0.002404177472553626
237.2082367 0.0016461803226647076
237.2239227 0.006833151828939717


