PRECURSORMZ: 685.3922180559999
COMPOUNDNAME: casmi2022challengebonus6
FORMULA: C37H58O10
SMILES: CC1CC2C(OC3(C1C4(CCC56CC57CCC(C(C7CCC6C4(C3O)C)(C)C)OC8C(C(C(CO8)O)O)O)C)O2)C(C)(C)OC(=O)C
INCHIKEY: NNFJPOSVDKIWPO-JSNBICHOSA-N
PRECURSORTYPE: [M+Na]+
PRECURSORINTENSITY: 2780506.037109
IONMODE: positive
CHARGE: 1
PARENTMASS: 662.4030000559999
NUM PEAKS: 22
58.27444077 0.003966671033816212
63.96852875 0.0034915393414653873
64.33831787 0.0033671076085732914
65.38980103 0.0040231023454732435
66.31286621 0.003910084357159154
69.4826889  0.033419880549824116
69.48722076 0.010100003658829801
76.15181732 0.006176732418138649
95.7776413  0.004525361022065488
102.2293777 0.003964187746011353
135.915329  0.0035846004243425865
156.3367615 0.008015467304843898
304.2466736 0.005708576518585941
420.0937805 0.004284431699100973
432.8305359 0.003862237998589129
475.3254089 0.005418957654925308
478.5726318 0.0038325259576823664
527.2961426 0.005112816505111908
625.3699951 1.0
666.3938599 0.023511164065685142
685.2540283 0.007327278196306412
685.3903809 0.28503956354734006


PRECURSORMZ: 685.3922180559999
COMPOUNDNAME: casmi2022challengebonus6
FORMULA: C37H58O10
SMILES: CC1CC2C(OC3(C1C4(CCC56CC57CCC(C(C7CCC6C4(C3O)C)(C)C)OC8C(C(C(CO8)O)O)O)C)O2)C(C)(C)OC(=O)C
INCHIKEY: NNFJPOSVDKIWPO-JSNBICHOSA-N
PRECURSORTYPE: [M+Na]+
PRECURSORINTENSITY: 2780506.037109
IONMODE: positive
CHARGE: 1
PARENTMASS: 662.4030000559999
NUM PEAKS: 22
58.27444077 0.003966671033816212
63.96852875 0.0034915393414653873
64.33831787 0.0033671076085732914
65.38980103 0.0040231023454732435
66.31286621 0.003910084357159154
69.4826889  0.033419880549824116
69.48722076 0.010100003658829801
76.15181732 0.006176732418138649
95.7776413  0.004525361022065488
102.2293777 0.003964187746011353
135.915329  0.0035846004243425865
156.3367615 0.008015467304843898
304.2466736 0.005708576518585941
420.0937805 0.004284431699100973
432.8305359 0.003862237998589129
475.3254089 0.005418957654925308
478.5726318 0.0038325259576823664
527.2961426 0.005112816505111908
625.3699951 1.0
666.3938599 0.023511164065685142
685.2540283 0.007327278196306412
685.3903809 0.28503956354734006


