PRECURSORMZ: 194.081169212
COMPOUNDNAME: casmi2022challengebonus206
FORMULA: C10H11NO3
SMILES: COC1=C(C=CC(=C1)C=CC(=O)N)O
INCHIKEY: YYAJJKZSQWOLIP-UHFFFAOYSA-N
PRECURSORTYPE: [M+H]+
PRECURSORINTENSITY: 91617534.95312
IONMODE: positive
CHARGE: 1
PARENTMASS: 193.073893212
NUM PEAKS: 28
63.02409744 0.0012175169668714849
78.04753876 0.0007709066336219607
89.03959656 0.0032143058420369057
91.05437469 0.0035136272420963613
94.12463379 0.0006878031357059034
117.0335236 0.016597478486303635
119.0491333 0.011554585011016067
134.0370789 0.0010683490923881253
136.0519562 0.0015931947202290479
144.9869232 0.0008331085338673649
145.0011292 0.004337990931972488
145.0283508 0.3757826921878222
145.0628662 0.001552248409210643
149.0597076 0.015648447726422737
151.0752716 0.018595065949563432
152.0705109 0.020698481904401152
162.0310059 0.0032131289137606145
162.0548401 0.001203435501165138
163.0388489 0.01159749946358105
177.0176849 0.011601559128651844
177.0252686 0.006330533547311552
177.0545349 1.0
177.0834808 0.004949540844856851
177.0913849 0.004058844709410766
177.1020508 0.006457009673371803
194.0604248 0.001794013989671388
194.0810394 0.1044471078927306
194.1539001 0.0016813726824228994


