PRECURSORMZ: 365.09955829599994
COMPOUNDNAME: casmi2022challengebonus70
FORMULA: C19H18O6
SMILES: COC1=CC=C(C=C1)C2=CC(=O)C3=C(O2)C(=C(C=C3OC)OC)OC
INCHIKEY: DDGJUTBQQURRGE-UHFFFAOYSA-N
PRECURSORTYPE: [M+Na]+
PRECURSORINTENSITY: 10241660.70703
IONMODE: positive
CHARGE: 1
PARENTMASS: 342.11034029599995
NUM PEAKS: 13
53.43147278 0.6437704048277778
56.75867081 0.6627631651292206
60.08534622 0.6487163330804506
74.28321075 0.7513220427456916
105.2504959 0.6703416839815423
116.0475388 0.6586282033454651
117.4630661 0.6900951159507415
122.9399719 0.8214612678322627
150.7583618 0.6948200744407674
197.3572693 0.7915455332004153
221.1127777 0.8050938068722924
304.250946  0.6844760855288595
335.0507507 1.0


PRECURSORMZ: 365.09955829599994
COMPOUNDNAME: casmi2022challengebonus70
FORMULA: C19H18O6
SMILES: COC1=CC=C(C=C1)C2=CC(=O)C3=C(O2)C(=C(C=C3OC)OC)OC
INCHIKEY: DDGJUTBQQURRGE-UHFFFAOYSA-N
PRECURSORTYPE: [M+Na]+
PRECURSORINTENSITY: 10241660.70703
IONMODE: positive
CHARGE: 1
PARENTMASS: 342.11034029599995
NUM PEAKS: 13
53.43147278 0.6437704048277778
56.75867081 0.6627631651292206
60.08534622 0.6487163330804506
74.28321075 0.7513220427456916
105.2504959 0.6703416839815423
116.0475388 0.6586282033454651
117.4630661 0.6900951159507415
122.9399719 0.8214612678322627
150.7583618 0.6948200744407674
197.3572693 0.7915455332004153
221.1127777 0.8050938068722924
304.250946  0.6844760855288595
335.0507507 1.0


