PRECURSORMZ: 279.087412232
COMPOUNDNAME: casmi2022challengebonus245
FORMULA: C14H16O6
SMILES: CC(CC(CC1=CC2=CC(=CC(=C2C(=O)O1)O)O)O)O
INCHIKEY: CQXZVXNVRFIVCN-UHFFFAOYSA-N
PRECURSORTYPE: [M-H]-
PRECURSORINTENSITY: 319879598.2266
IONMODE: negative
CHARGE: -1
PARENTMASS: 280.094688232
NUM PEAKS: 35
54.22240829 0.0008967429702552861
59.18474197 0.0007605218244599052
68.22872925 0.0009290814220520518
69.77017975 0.0021703159313488448
69.77392578 0.001263737673458983
70.42590332 0.0010103577525087146
72.04465485 0.0007914891188169804
79.05420685 0.0010694127324940763
81.03314972 0.0020754384518671125
103.0539856 0.0009789969469072108
105.033287  0.0018666416807194776
119.0486069 0.0010268946898065855
120.5479279 0.001007738788367274
123.0437622 0.07356638010778552
123.054184  0.0015264488945402942
136.3240509 0.0010874410738462227
145.027832  0.006128088679680537
146.0363464 0.00807981855433756
147.0438995 0.05875312078181186
149.0231934 0.024803856531266388
173.0229645 0.005180580367192366
189.9782867 0.0007999283651377511
190.0261993 0.14504969437285886
190.9823303 0.007464900063072204
190.9915009 0.00619862169009016
191.0339355 1.0
191.0656433 0.009777496796105031
191.0748291 0.009516182939406497
191.0954437 0.0019196588863415328
193.0853577 0.001159141539961223
217.0496216 0.004463058487849117
246.5741272 0.0010597253232606787
261.0774231 0.0020235301815920877
279.0869446 0.253114242187259
279.1594238 0.0012836537289095803


PRECURSORMZ: 279.087412232
COMPOUNDNAME: casmi2022challengebonus245
FORMULA: C14H16O6
SMILES: CC(CC(CC1=CC2=CC(=CC(=C2C(=O)O1)O)O)O)O
INCHIKEY: CQXZVXNVRFIVCN-UHFFFAOYSA-N
PRECURSORTYPE: [M-H]-
PRECURSORINTENSITY: 319879598.2266
IONMODE: negative
CHARGE: -1
PARENTMASS: 280.094688232
NUM PEAKS: 35
54.22240829 0.0008967429702552861
59.18474197 0.0007605218244599052
68.22872925 0.0009290814220520518
69.77017975 0.0021703159313488448
69.77392578 0.001263737673458983
70.42590332 0.0010103577525087146
72.04465485 0.0007914891188169804
79.05420685 0.0010694127324940763
81.03314972 0.0020754384518671125
103.0539856 0.0009789969469072108
105.033287  0.0018666416807194776
119.0486069 0.0010268946898065855
120.5479279 0.001007738788367274
123.0437622 0.07356638010778552
123.054184  0.0015264488945402942
136.3240509 0.0010874410738462227
145.027832  0.006128088679680537
146.0363464 0.00807981855433756
147.0438995 0.05875312078181186
149.0231934 0.024803856531266388
173.0229645 0.005180580367192366
189.9782867 0.0007999283651377511
190.0261993 0.14504969437285886
190.9823303 0.007464900063072204
190.9915009 0.00619862169009016
191.0339355 1.0
191.0656433 0.009777496796105031
191.0748291 0.009516182939406497
191.0954437 0.0019196588863415328
193.0853577 0.001159141539961223
217.0496216 0.004463058487849117
246.5741272 0.0010597253232606787
261.0774231 0.0020235301815920877
279.0869446 0.253114242187259
279.1594238 0.0012836537289095803


