PRECURSORMZ: 644.3065421639999
COMPOUNDNAME: casmi2022challengebonus231
FORMULA: C34H42O11
SMILES: CC=C(C)C(=O)OC1C(C(C2(C3CCC4(C(OC(=O)CC4=C3CC1(C2=O)O)C5=COC=C5)C)C)C(C(=O)OC)OC(=O)C)(C)C
INCHIKEY: WTAMGABZURYMPQ-UHFFFAOYSA-N
PRECURSORTYPE: [M+NH4]+
PRECURSORINTENSITY: 95551355.91406
IONMODE: positive
CHARGE: 1
PARENTMASS: 626.2727191639999
NUM PEAKS: 241
53.03889084 0.009342236323816996
55.05449677 0.3024511857162405
64.28194427 0.003978818547291776
65.03886414 0.01000974482667263
67.05435944 0.09973974027571923
79.05418396 0.016979097323250793
81.03346252 0.044867785009429756
83.03524017 0.0034463492265911122
83.03665161 0.003537343670352012
83.0491333  0.8536934779562463
91.05419922 0.005799202626666884
93.06994629 0.019972296177983954
95.01272583 0.07941523650717158
95.0343399  0.006003317720503044
95.04379272 0.019654969947441727
95.04912567 1.0
97.06480408 0.01620095086634887
105.0700302 0.006903376864542792
107.0491257 0.02376597240339327
107.0856094 0.022289206854360505
109.0646515 0.019013311942175138
109.1008301 0.004795461132054168
113.0599747 0.009359298245580724
118.2584305 0.005080220086903875
119.0856323 0.018454136209361198
121.064682  0.03357959858318862
123.0440292 0.024726271909354856
123.0796356 0.008260442940424124
125.0597076 0.005627941102289584
127.0755081 0.036598675625408784
131.0856323 0.00828184426476707
133.0652618 0.007222866862825068
135.043869  0.009949296790516144
135.0800629 0.050565218855257214
137.059967  0.023659486945115014
137.0961914 0.00998496236800463
139.0751495 0.020495087384887558
143.0854797 0.009167000804620967
145.0644531 0.046209851072019935
147.080368  0.0322442670993506
149.0594025 0.019050446073180065
149.0965576 0.015905602503381966
151.0756836 0.008985918761257131
151.1112976 0.005139877477581309
153.0908813 0.07227142479746501
155.0707855 0.03936071921202968
157.0865021 0.007328460805281726
157.1011658 0.008437811076225004
159.0799103 0.06427330457761166
161.0592651 0.010076606040980037
161.095871  0.01018374814540975
163.0617676 0.007516328357031456
163.0751495 0.3994962717055572
165.0541534 0.0041629042028898
165.0916138 0.005949303629920938
167.0701447 0.023573377296030516
169.1006317 0.006180208205564233
171.0800781 0.03292427165758248
171.116272  0.009692757797380326
173.0594482 0.020665046000673672
173.0957489 0.030007042015733433
175.0752258 0.04192087179697501
177.0909424 0.05078012015327102
179.0700378 0.00904091880999135
179.1065216 0.006780416411444922
181.0857391 0.023217154670263633
181.1016693 0.006834936337127134
183.0801849 0.04264239537933768
183.1165314 0.004565249298322163
185.0594635 0.0066223837358147025
185.0782471 0.007945914872962546
185.0959015 0.09534463353321959
187.0753479 0.03774854610630668
187.1113586 0.021918785244493255
189.090744  0.017568375930839434
191.0701294 0.0550658399317569
191.1060944 0.006573882407237576
193.0855408 0.0070569272379418565
195.0831299 0.028845790986776823
195.1012878 0.8759521685652126
197.0963593 0.04584205406890867
198.1040955 0.004685264732987738
199.0757904 0.03117523134197714
199.1111908 0.058205605372055394
201.0904083 0.0349084130517584
203.0696869 0.010680226037858514
203.1071014 0.009169746060218028
205.0851288 0.029994567716705573
207.0801239 0.017183875985712898
207.1177979 0.005809054296788617
209.0960846 0.0362876350017019
209.1329346 0.007206004703896573
211.0749664 0.020354576975574537
211.1111755 0.020634436796336402
213.0909882 0.13131923028286227
213.1114044 0.014288672668760593
215.1063385 0.055366975483395996
217.0859375 0.008282096935085892
219.1007233 0.017106941582100136
221.1318665 0.010084926855314934
223.094635  0.01759666709514806
223.1487427 0.005241208164678121
225.0909119 0.10062186131051003
225.1277161 0.015643705514992227
227.10672   0.15259110039717758
229.085434  0.03148909633527523
229.1217346 0.03250761385168316
231.1002045 0.05506612078643614
233.1335144 0.007345673538096806
234.1046448 0.007620772179798134
234.1399231 0.008359202422711008
235.1126404 0.006974396013705328
237.0905151 0.026873241770593973
237.1274414 0.028053355553606187
239.1069183 0.02436167506730702
239.1440582 0.006353052504287029
241.0852966 0.025972408298336466
241.123764  0.007253367285420379
243.1012115 0.03121428794303995
245.1180573 0.006816249117246053
247.095047  0.005608052833084789
247.1469727 0.005340404751782692
249.0973358 0.005740956926322593
249.1275635 0.053566016609128644
249.1578064 0.007285366918204864
251.1063995 0.020812886321544842
251.1424866 0.02518061962206802
253.0861664 0.04267259714660507
253.1218109 0.029001447770270177
255.0716705 0.006894987814387936
255.1015778 0.14837714096708693
255.1327209 0.01059519827264404
257.1169128 0.09996864079499818
259.0944824 0.01431200734133562
261.1278992 0.02963669160846092
263.10672   0.03154773364989057
263.1405029 0.00834246190154852
265.1222534 0.08744803634636132
265.1583252 0.029588042435607222
267.1020203 0.01910389944332862
267.1376953 0.05584701942140961
269.1147156 0.005906346214483988
271.0997009 0.007154069333510802
273.1118164 0.26599640657909446
273.1616211 0.005667102034932183
275.106842  0.008442445178432437
275.1434631 0.023157538319970663
277.1223145 0.06811691162257992
277.1555481 0.01219958755026745
279.1023865 0.009917842055366378
279.1378174 0.03975141576074814
281.0842285 0.005321953884959139
281.1168823 0.038580425799111466
281.1525574 0.007924146163009259
283.1338806 0.01645456461955093
283.1682129 0.009223427872024697
289.1216125 0.01998275900371051
289.1557922 0.00553310814642494
291.1018066 0.0076217200643405635
291.137085  0.010273262663017549
291.1767578 0.004425197255712758
293.1164856 0.03585171293822666
293.1532898 0.08561027364201462
295.0954895 0.009872800480645996
295.132782  0.18889818953004137
297.1483154 0.055003751269146695
301.1210327 0.006330320581454945
301.1560059 0.03600374234508815
303.138092  0.05300810076667156
305.1170959 0.04276021589512801
305.1524963 0.009396044718014307
307.1341553 0.0313288845635686
307.1684875 0.008045656357701835
309.1115723 0.05886812573757977
309.1495667 0.013186724500895128
311.1672363 0.0079002275302649
313.147583  0.005831231927199176
315.1369324 0.01874060996003414
315.1742554 0.0321320735663943
316.1467285 0.005394543941368049
317.114563  0.006160234888815725
319.1701965 0.027244076751080665
321.1102905 0.01645671750911678
321.1480713 0.08452304166598629
323.1275635 0.3125896440667732
323.1620789 0.00883130924926136
324.1340637 0.017996408351247908
325.1542358 0.009925102742179646
328.1452026 0.0059796220903297
329.1530151 0.06839540079339311
330.1609802 0.010778958324709908
331.131134  0.016049834237194895
333.1477966 0.015583724251401235
333.1847534 0.02628237494957274
335.1248169 0.006377053712262783
335.1646118 0.00997562889454459
339.1547241 0.024440164060904865
341.1399231 0.027828707411512898
343.1278687 0.008052667835433526
343.1684875 0.11022823058197646
344.1799622 0.005096241659644509
345.1844177 0.02094091649828044
347.1257629 0.005030717471838266
347.165802  0.049252365635007525
349.1430969 0.021276223361843486
351.194458  0.006647483144921774
353.1496582 0.04101276181510541
355.1508179 0.008092050287259749
356.1404419 0.019549269695555427
357.1477051 0.08175050756374087
358.155365  0.030685286287595443
359.1610718 0.005771689251813261
361.1420288 0.013051674935028424
361.1810608 0.11497345630559419
365.1766663 0.005883942614727633
371.164032  0.24902825863263423
373.1740417 0.02663574551585046
375.1547546 0.045493802178052566
377.174408  0.023740416605432434
379.1912231 0.034385517018812546
381.1503906 0.02197910966503388
385.1752014 0.0074958427771708155
389.1759033 0.19837734349891195
393.2070618 0.010147397242946924
399.1586304 0.19567821136044045
403.1907959 0.048398891777499044
407.1861877 0.07682430857850127
413.1864929 0.005184548205454106
417.1694641 0.2612156586721026
421.2051086 0.06575993168601542
425.1971436 0.009345058715558355
431.1871643 0.05549305550017576
433.1902771 0.005081044850292905
435.1773071 0.018332154297478493
439.2105103 0.026230058843090116
449.1958008 0.09672248285536456
467.2063293 0.06047383918568029
481.2213135 0.007470430373324381
489.8642578 0.005022363528518316
491.2085571 0.006086215835887449
509.2173462 0.100005072789305


PRECURSORMZ: 644.3065421639999
COMPOUNDNAME: casmi2022challengebonus231
FORMULA: C34H42O11
SMILES: CC=C(C)C(=O)OC1C(C(C2(C3CCC4(C(OC(=O)CC4=C3CC1(C2=O)O)C5=COC=C5)C)C)C(C(=O)OC)OC(=O)C)(C)C
INCHIKEY: WTAMGABZURYMPQ-UHFFFAOYSA-N
PRECURSORTYPE: [M+NH4]+
PRECURSORINTENSITY: 95551355.91406
IONMODE: positive
CHARGE: 1
PARENTMASS: 626.2727191639999
NUM PEAKS: 241
53.03889084 0.009342236323816996
55.05449677 0.3024511857162405
64.28194427 0.003978818547291776
65.03886414 0.01000974482667263
67.05435944 0.09973974027571923
79.05418396 0.016979097323250793
81.03346252 0.044867785009429756
83.03524017 0.0034463492265911122
83.03665161 0.003537343670352012
83.0491333  0.8536934779562463
91.05419922 0.005799202626666884
93.06994629 0.019972296177983954
95.01272583 0.07941523650717158
95.0343399  0.006003317720503044
95.04379272 0.019654969947441727
95.04912567 1.0
97.06480408 0.01620095086634887
105.0700302 0.006903376864542792
107.0491257 0.02376597240339327
107.0856094 0.022289206854360505
109.0646515 0.019013311942175138
109.1008301 0.004795461132054168
113.0599747 0.009359298245580724
118.2584305 0.005080220086903875
119.0856323 0.018454136209361198
121.064682  0.03357959858318862
123.0440292 0.024726271909354856
123.0796356 0.008260442940424124
125.0597076 0.005627941102289584
127.0755081 0.036598675625408784
131.0856323 0.00828184426476707
133.0652618 0.007222866862825068
135.043869  0.009949296790516144
135.0800629 0.050565218855257214
137.059967  0.023659486945115014
137.0961914 0.00998496236800463
139.0751495 0.020495087384887558
143.0854797 0.009167000804620967
145.0644531 0.046209851072019935
147.080368  0.0322442670993506
149.0594025 0.019050446073180065
149.0965576 0.015905602503381966
151.0756836 0.008985918761257131
151.1112976 0.005139877477581309
153.0908813 0.07227142479746501
155.0707855 0.03936071921202968
157.0865021 0.007328460805281726
157.1011658 0.008437811076225004
159.0799103 0.06427330457761166
161.0592651 0.010076606040980037
161.095871  0.01018374814540975
163.0617676 0.007516328357031456
163.0751495 0.3994962717055572
165.0541534 0.0041629042028898
165.0916138 0.005949303629920938
167.0701447 0.023573377296030516
169.1006317 0.006180208205564233
171.0800781 0.03292427165758248
171.116272  0.009692757797380326
173.0594482 0.020665046000673672
173.0957489 0.030007042015733433
175.0752258 0.04192087179697501
177.0909424 0.05078012015327102
179.0700378 0.00904091880999135
179.1065216 0.006780416411444922
181.0857391 0.023217154670263633
181.1016693 0.006834936337127134
183.0801849 0.04264239537933768
183.1165314 0.004565249298322163
185.0594635 0.0066223837358147025
185.0782471 0.007945914872962546
185.0959015 0.09534463353321959
187.0753479 0.03774854610630668
187.1113586 0.021918785244493255
189.090744  0.017568375930839434
191.0701294 0.0550658399317569
191.1060944 0.006573882407237576
193.0855408 0.0070569272379418565
195.0831299 0.028845790986776823
195.1012878 0.8759521685652126
197.0963593 0.04584205406890867
198.1040955 0.004685264732987738
199.0757904 0.03117523134197714
199.1111908 0.058205605372055394
201.0904083 0.0349084130517584
203.0696869 0.010680226037858514
203.1071014 0.009169746060218028
205.0851288 0.029994567716705573
207.0801239 0.017183875985712898
207.1177979 0.005809054296788617
209.0960846 0.0362876350017019
209.1329346 0.007206004703896573
211.0749664 0.020354576975574537
211.1111755 0.020634436796336402
213.0909882 0.13131923028286227
213.1114044 0.014288672668760593
215.1063385 0.055366975483395996
217.0859375 0.008282096935085892
219.1007233 0.017106941582100136
221.1318665 0.010084926855314934
223.094635  0.01759666709514806
223.1487427 0.005241208164678121
225.0909119 0.10062186131051003
225.1277161 0.015643705514992227
227.10672   0.15259110039717758
229.085434  0.03148909633527523
229.1217346 0.03250761385168316
231.1002045 0.05506612078643614
233.1335144 0.007345673538096806
234.1046448 0.007620772179798134
234.1399231 0.008359202422711008
235.1126404 0.006974396013705328
237.0905151 0.026873241770593973
237.1274414 0.028053355553606187
239.1069183 0.02436167506730702
239.1440582 0.006353052504287029
241.0852966 0.025972408298336466
241.123764  0.007253367285420379
243.1012115 0.03121428794303995
245.1180573 0.006816249117246053
247.095047  0.005608052833084789
247.1469727 0.005340404751782692
249.0973358 0.005740956926322593
249.1275635 0.053566016609128644
249.1578064 0.007285366918204864
251.1063995 0.020812886321544842
251.1424866 0.02518061962206802
253.0861664 0.04267259714660507
253.1218109 0.029001447770270177
255.0716705 0.006894987814387936
255.1015778 0.14837714096708693
255.1327209 0.01059519827264404
257.1169128 0.09996864079499818
259.0944824 0.01431200734133562
261.1278992 0.02963669160846092
263.10672   0.03154773364989057
263.1405029 0.00834246190154852
265.1222534 0.08744803634636132
265.1583252 0.029588042435607222
267.1020203 0.01910389944332862
267.1376953 0.05584701942140961
269.1147156 0.005906346214483988
271.0997009 0.007154069333510802
273.1118164 0.26599640657909446
273.1616211 0.005667102034932183
275.106842  0.008442445178432437
275.1434631 0.023157538319970663
277.1223145 0.06811691162257992
277.1555481 0.01219958755026745
279.1023865 0.009917842055366378
279.1378174 0.03975141576074814
281.0842285 0.005321953884959139
281.1168823 0.038580425799111466
281.1525574 0.007924146163009259
283.1338806 0.01645456461955093
283.1682129 0.009223427872024697
289.1216125 0.01998275900371051
289.1557922 0.00553310814642494
291.1018066 0.0076217200643405635
291.137085  0.010273262663017549
291.1767578 0.004425197255712758
293.1164856 0.03585171293822666
293.1532898 0.08561027364201462
295.0954895 0.009872800480645996
295.132782  0.18889818953004137
297.1483154 0.055003751269146695
301.1210327 0.006330320581454945
301.1560059 0.03600374234508815
303.138092  0.05300810076667156
305.1170959 0.04276021589512801
305.1524963 0.009396044718014307
307.1341553 0.0313288845635686
307.1684875 0.008045656357701835
309.1115723 0.05886812573757977
309.1495667 0.013186724500895128
311.1672363 0.0079002275302649
313.147583  0.005831231927199176
315.1369324 0.01874060996003414
315.1742554 0.0321320735663943
316.1467285 0.005394543941368049
317.114563  0.006160234888815725
319.1701965 0.027244076751080665
321.1102905 0.01645671750911678
321.1480713 0.08452304166598629
323.1275635 0.3125896440667732
323.1620789 0.00883130924926136
324.1340637 0.017996408351247908
325.1542358 0.009925102742179646
328.1452026 0.0059796220903297
329.1530151 0.06839540079339311
330.1609802 0.010778958324709908
331.131134  0.016049834237194895
333.1477966 0.015583724251401235
333.1847534 0.02628237494957274
335.1248169 0.006377053712262783
335.1646118 0.00997562889454459
339.1547241 0.024440164060904865
341.1399231 0.027828707411512898
343.1278687 0.008052667835433526
343.1684875 0.11022823058197646
344.1799622 0.005096241659644509
345.1844177 0.02094091649828044
347.1257629 0.005030717471838266
347.165802  0.049252365635007525
349.1430969 0.021276223361843486
351.194458  0.006647483144921774
353.1496582 0.04101276181510541
355.1508179 0.008092050287259749
356.1404419 0.019549269695555427
357.1477051 0.08175050756374087
358.155365  0.030685286287595443
359.1610718 0.005771689251813261
361.1420288 0.013051674935028424
361.1810608 0.11497345630559419
365.1766663 0.005883942614727633
371.164032  0.24902825863263423
373.1740417 0.02663574551585046
375.1547546 0.045493802178052566
377.174408  0.023740416605432434
379.1912231 0.034385517018812546
381.1503906 0.02197910966503388
385.1752014 0.0074958427771708155
389.1759033 0.19837734349891195
393.2070618 0.010147397242946924
399.1586304 0.19567821136044045
403.1907959 0.048398891777499044
407.1861877 0.07682430857850127
413.1864929 0.005184548205454106
417.1694641 0.2612156586721026
421.2051086 0.06575993168601542
425.1971436 0.009345058715558355
431.1871643 0.05549305550017576
433.1902771 0.005081044850292905
435.1773071 0.018332154297478493
439.2105103 0.026230058843090116
449.1958008 0.09672248285536456
467.2063293 0.06047383918568029
481.2213135 0.007470430373324381
489.8642578 0.005022363528518316
491.2085571 0.006086215835887449
509.2173462 0.100005072789305


