PRECURSORMZ: 396.23806867999997
COMPOUNDNAME: casmi2022challengebonus230
FORMULA: C21H30O6
SMILES: CC1=CC(=O)OC1(CC=C(C)CCC=C2CCC(OC2=O)C(C)(C)O)OC
INCHIKEY: FHBPNMGVDGKJOZ-UHFFFAOYSA-N
PRECURSORTYPE: [M+NH4]+
PRECURSORINTENSITY: 311486337.2031
IONMODE: positive
CHARGE: 1
PARENTMASS: 378.20424568
NUM PEAKS: 164
55.05436325 0.008107987720326004
56.27061081 0.008185507600573256
56.27324677 0.0067563268003921016
67.05429077 0.013573757496568898
69.03369904 0.05522715200857981
69.0697937  0.012722640088232456
70.58930969 0.006273942057550823
71.04921722 0.09386508804811738
77.67021942 0.006654630014583586
79.05427551 0.042289349232472954
81.06997681 0.08912041353607228
83.04911804 0.01248003950535923
85.06483459 0.008548468414947946
91.05445862 0.039301788666565286
91.2301178  0.006908275049394723
93.06999969 0.062299885784888535
95.0490036  0.014772657842174335
95.08548737 0.05640984091207093
97.02852631 0.05908737872792706
97.06497955 0.012560990687856448
99.04393005 0.008608780022208256
99.08039856 0.036853328262330565
105.0699615 0.09625302729354321
107.0854721 0.3069505740730628
107.0934372 0.01434575041080786
109.0649567 0.02859788554572927
111.0442047 0.0765336889162078
111.0810089 0.009559230708647701
113.0234833 0.009735253174604108
115.0555954 0.008415467466325616
117.0698929 0.03842665130761235
119.0855484 0.09472974949937384
121.0649872 0.07248163987808648
121.1010971 0.015165325719313158
123.0440216 0.20116897905603903
123.0803528 0.06277776349970147
125.7768936 0.006397680577265059
127.0393066 0.04891989083736839
129.0695648 0.014144522483481928
130.0786896 0.007223489835624493
131.085556  0.2226454781320486
133.0649872 0.09465789085040567
133.1008911 0.03868636498866558
135.0803986 0.5067386702039725
137.0230408 0.04124983997274567
137.0596313 0.09464786577074202
137.0957336 0.007523505038213653
141.0702362 0.007674487346412574
142.0778351 0.0067774894196337785
143.0853424 0.08841038276061387
145.0649261 0.0402391135783152
145.1012268 0.1208024771043477
147.0802765 0.11720759440726386
147.1164551 0.01198834558107312
149.0594482 0.05656068463239308
149.0959015 0.029454238403313775
151.0392456 0.00690007874529763
151.075119  0.08991679624688802
155.0850067 0.014016472294553592
157.1012268 0.06741119369004255
159.0806732 0.08609292630378933
159.1167603 0.09176604608507082
160.1244659 0.009364788578082773
161.0602264 0.010532182723126348
161.0957184 0.10454852357626236
163.0752716 0.2856786774556917
163.1118164 0.01481040717612434
165.0713654 0.011433046500286767
165.0911102 0.013633285998838828
167.0703888 0.015396527031889292
167.0852356 0.014204701346932568
169.1012268 0.09444415161030163
171.0804443 0.06531196471684901
171.1166992 0.06607311605176483
172.087677  0.01589911680183582
173.0598145 0.010075301071642947
173.0962219 0.09207453935927759
173.1321564 0.08008414334552176
174.067215  0.015272041723887318
175.0751343 0.03922490078043075
175.1112671 0.015510466303389661
177.0900726 0.009753361433923278
177.1283875 0.01226863872695888
178.1350098 0.035250013464730584
179.085495  0.029923173025741892
180.0921936 0.01094099942737493
181.1013794 0.05281079723921729
182.0733337 0.013079619082504709
183.0803528 0.014093602292039107
183.1175995 0.05710774274371243
185.0966949 0.06174059186681116
185.1126404 0.007595700973339727
185.1322021 0.028736937608392417
187.0749664 0.04346282454675954
187.1118774 0.08106901892660237
188.1193237 0.04063157774797252
189.0908661 0.29408563846493097
191.1070099 0.008478542482453907
191.1430206 0.014029736657119887
193.101181  0.027434430301905975
195.08078   0.028845547090704516
195.1166229 0.08782194865428032
196.0870819 0.008689226945202072
197.0959625 0.46365163920805585
197.1300812 0.014479317399071425
199.0756531 0.007912350060607316
199.111496  0.07567972711693081
199.1472931 0.006925985077284882
201.0917206 0.037792857222241044
201.1275482 0.11979000416872333
203.1067657 0.04271581251474041
207.0793152 0.008536140772849888
209.0960999 0.06709194733238574
209.1318359 0.02268414548545216
211.0769958 0.007665160215333101
211.1118622 0.08620047717509098
212.1195068 0.009999377456578648
213.091217  0.1389861950178146
213.126358  0.09327329443807245
215.1065063 0.22677534342810546
216.1802979 0.04007969410696831
217.1584015 0.00801482494220585
219.1374054 0.037959045793014394
221.1328888 0.00993100521106446
223.1114197 0.09932292575558244
223.1486511 0.03041692656624471
225.0908661 1.0
225.1305542 0.01452175200509608
227.106308  0.06595809145351873
229.1213684 0.012655879970369044
231.1011658 0.014627168957042273
231.138031  0.012963789672733312
232.124115  0.013567041828613001
235.1118317 0.010182390261644294
237.0897217 0.03220226902617191
237.1273041 0.010521670916160573
237.1637268 0.03449589504712709
239.1069336 0.08433585911018862
239.1339874 0.007958110775674276
241.121933  0.11392154561001161
241.1613922 0.007691450168581633
243.1017151 0.12026463592169981
247.1484833 0.0360254343417526
250.0987091 0.01076646636366036
250.1350861 0.00806704084680973
251.1073914 0.03688276232367481
251.1426086 0.0365119278811932
253.1222992 0.011259775755064155
255.1002655 0.01122781455213581
257.1173706 0.011827230495402703
259.133606  0.009101717063051594
260.1202087 0.015189628689750273
265.1578674 0.09716806126366924
269.1203613 0.007523292147198144
269.1539001 0.03319010003546781
275.1424561 0.036859469541977954
278.129303  0.028337233474474345
283.1683044 0.10234265206676668
293.1531677 0.12585133697828577
304.2529602 0.00805649731490831
311.1643372 0.16579010558165447
329.1747131 0.01484777915031352
355.8235779 0.007115499824424188
411.4317932 0.007630027353707038


