PRECURSORMZ: 197.117220372
COMPOUNDNAME: casmi2022challengebonus118
FORMULA: C11H16O3
SMILES: CC1(CC(CC2(C1=CC(=O)O2)C)O)C
INCHIKEY: XEVQXKKKAVVSMW-UHFFFAOYSA-N
PRECURSORTYPE: [M+H]+
PRECURSORINTENSITY: 26418731.53027
IONMODE: positive
CHARGE: 1
PARENTMASS: 196.109944372
NUM PEAKS: 78
55.01808929 0.0034890594063072267
55.05459595 0.013676732990837357
57.06988144 0.0061310679176711565
57.90318298 0.0019469801511295378
59.04930496 0.03001945901469859
65.03942871 0.0021458261754641592
67.05431366 0.022305507451862834
68.91981506 0.002082154033294319
69.03359222 0.008625678558554508
69.07003784 0.009746042282947417
74.38803101 0.0016800283429289718
77.03897858 0.0022773441712962994
79.05421448 0.033564199890034285
81.06991577 0.03606225358849289
83.0490036  0.007320992918770888
85.06463623 0.003436369169869038
87.04386902 0.002435761163466107
91.05416107 0.08613629659689097
93.06986237 0.23217070929967978
93.07543182 0.004309244159625375
95.04908752 0.062402229027449525
95.08547974 0.022324455026264418
105.0698547 0.14715992560381216
107.0490875 0.0033603971537198725
107.063942  0.003991174779943904
107.0679016 0.0032770264307544934
107.0854568 0.7985296272888838
107.0918121 0.016498973732753847
107.1018982 0.007794964305989008
109.0647049 0.0369902055787167
109.1011581 0.07009513496627527
109.3404694 0.0019755884647688366
110.5786209 0.001822183415385836
111.0440598 0.0038180871409972256
111.0802917 0.003347980979873119
113.0596848 0.004580080674147719
117.0697861 0.0030796641019785716
119.0489807 0.016880354725016127
119.0599136 0.008590062887152954
119.0763321 0.0033741589170327834
119.0854187 0.0796017233816771
120.0933914 0.003494812469999316
121.064682  0.06626865998808941
121.1010208 0.01048141274119569
123.0438995 0.036333716087051694
123.0806046 0.00413818566261564
123.1167603 0.04022548181081238
131.0854645 0.011888214316576948
133.0646057 0.009567435343042182
133.0747833 0.0019565978594163033
133.1010742 0.836620011005503
133.1102905 0.012673479162450409
133.1242828 0.007802852344497401
133.1353607 0.0018963601977064102
134.9560394 0.007857033545236033
135.079361  0.016841498939307992
135.1166534 0.5341245396293007
137.0595856 0.039257020250765585
137.0847015 0.0034206404850482585
137.0959778 0.0627194857618073
141.0544434 0.0027330439770922384
143.0851288 0.017561525374546978
146.0723419 0.011282539725987837
147.0918121 0.0027617255596480176
149.0960846 0.0022802800160746737
150.9509888 0.0034422481281675896
151.0747986 0.0034975594728679964
151.111618  0.08024380099377028
161.0566101 0.0025630414828787616
161.0959015 0.45953572199739234
161.1279755 0.0034764693641586657
167.106308  0.0018539441823066257
168.9608002 0.0021694764803800674
179.0590057 0.0036788767811836713
179.1064453 1.0
179.1429291 0.0102557782053974
197.1170197 0.21299768062709187
197.172821  0.0374824889615609


