PRECURSORMZ: 345.1707479319999
COMPOUNDNAME: casmi2022challengebonus25
FORMULA: C20H26O5
SMILES: CC(CO)C(C)C(C1=CC(=C(C=C1)O)OC)C2=CC(=C(C=C2)O)OC
INCHIKEY: BVFKMONTRIVXBO-UHFFFAOYSA-N
PRECURSORTYPE: [M-H]-
PRECURSORINTENSITY: 2072517.525391
IONMODE: negative
CHARGE: -1
PARENTMASS: 346.1780239319999
NUM PEAKS: 14
60.76550293 0.008948133302703987
60.76860046 0.008868482057679143
62.78406906 0.005440210297781551
64.52497101 0.005536248493907562
185.397934  0.0071567604441246475
221.2830658 0.010325689308507949
228.0388489 0.019441327001806844
243.0656433 1.0
257.0814209 0.032720758685816045
258.0665894 0.007523708716071617
258.0891724 0.2372553478683152
259.3500671 0.007430549846030602
330.1466675 0.2031036935261707
345.1695862 0.06208664416291801


PRECURSORMZ: 345.1707479319999
COMPOUNDNAME: casmi2022challengebonus25
FORMULA: C20H26O5
SMILES: CC(CO)C(C)C(C1=CC(=C(C=C1)O)OC)C2=CC(=C(C=C2)O)OC
INCHIKEY: BVFKMONTRIVXBO-UHFFFAOYSA-N
PRECURSORTYPE: [M-H]-
PRECURSORINTENSITY: 2072517.525391
IONMODE: negative
CHARGE: -1
PARENTMASS: 346.1780239319999
NUM PEAKS: 14
60.76550293 0.008948133302703987
60.76860046 0.008868482057679143
62.78406906 0.005440210297781551
64.52497101 0.005536248493907562
185.397934  0.0071567604441246475
221.2830658 0.010325689308507949
228.0388489 0.019441327001806844
243.0656433 1.0
257.0814209 0.032720758685816045
258.0665894 0.007523708716071617
258.0891724 0.2372553478683152
259.3500671 0.007430549846030602
330.1466675 0.2031036935261707
345.1695862 0.06208664416291801


