PRECURSORMZ: 336.064867516
COMPOUNDNAME: casmi2022challengebonus188
FORMULA: C14H13N3O5S
SMILES: CC1=CC(=NO1)NC(=O)C2=C(C3=CC=CC=C3S(=O)(=O)N2C)O
INCHIKEY: YYUAYBYLJSNDCX-UHFFFAOYSA-N
PRECURSORTYPE: [M+H]+
PRECURSORINTENSITY: 570727.4033203
IONMODE: positive
CHARGE: 1
PARENTMASS: 335.057591516
NUM PEAKS: 25
51.63717651 0.021575322639050626
53.63180542 0.020601009954812965
69.04475403 0.023864063570531217
69.99228668 0.04667718099868208
71.06030273 0.0351367436263164
72.04428864 0.10967014632793654
88.98558807 0.02171429582861024
91.05384064 0.01968938731583656
97.01095581 0.028772174866346523
99.05526733 1.0
100.7118912 0.01926147319324701
105.0330353 0.07622417633840217
109.0102081 0.03548714965849955
118.0650101 0.02708277482858567
125.0055237 0.02060448082750791
125.0345001 0.21401906223565134
146.0597992 0.031901977853527275
153.0       0.13344987414514203
163.0771942 0.023339210462657415
164.0167389 0.02184369991894844
166.3386536 0.021624670797174183
168.9952545 0.1733200238655916
210.0221405 0.029503143882377385
284.6566772 0.021488974885816598
303.0324402 0.023535630513294832


PRECURSORMZ: 336.064867516
COMPOUNDNAME: casmi2022challengebonus188
FORMULA: C14H13N3O5S
SMILES: CC1=CC(=NO1)NC(=O)C2=C(C3=CC=CC=C3S(=O)(=O)N2C)O
INCHIKEY: YYUAYBYLJSNDCX-UHFFFAOYSA-N
PRECURSORTYPE: [M+H]+
PRECURSORINTENSITY: 570727.4033203
IONMODE: positive
CHARGE: 1
PARENTMASS: 335.057591516
NUM PEAKS: 25
51.63717651 0.021575322639050626
53.63180542 0.020601009954812965
69.04475403 0.023864063570531217
69.99228668 0.04667718099868208
71.06030273 0.0351367436263164
72.04428864 0.10967014632793654
88.98558807 0.02171429582861024
91.05384064 0.01968938731583656
97.01095581 0.028772174866346523
99.05526733 1.0
100.7118912 0.01926147319324701
105.0330353 0.07622417633840217
109.0102081 0.03548714965849955
118.0650101 0.02708277482858567
125.0055237 0.02060448082750791
125.0345001 0.21401906223565134
146.0597992 0.031901977853527275
153.0       0.13344987414514203
163.0771942 0.023339210462657415
164.0167389 0.02184369991894844
166.3386536 0.021624670797174183
168.9952545 0.1733200238655916
210.0221405 0.029503143882377385
284.6566772 0.021488974885816598
303.0324402 0.023535630513294832


