PRECURSORMZ: 402.212247856
COMPOUNDNAME: casmi2022challengebonus136
FORMULA: C19H28O8
SMILES: CC1CC(C2C(C(C(C2(C1C(=O)O)O)(C)C=O)OC(=O)C)(C)C)OC(=O)C
INCHIKEY: KABDICRTRLPPFE-DHLSWZRESA-N
PRECURSORTYPE: [M+NH4]+
PRECURSORINTENSITY: 2064301.919922
IONMODE: positive
CHARGE: 1
PARENTMASS: 384.178424856
NUM PEAKS: 17
59.70376968 0.057945224865514386
119.0854645 0.34720803657318544
131.0856018 0.10845929397690751
145.0645142 0.06490398489442462
157.1011963 0.10067706506503057
159.1172333 0.06874383672942473
163.0751343 0.304602728733134
170.1088715 0.1192303719044072
173.1323395 1.0
185.1321106 0.0986591616457135
187.1121063 0.06108616639595484
201.1273651 0.6279313061822238
219.1374817 0.6078706617282293
220.525589  0.09303087236123415
229.1220398 0.40471735900718836
247.132309  0.46041325307729175
295.0908508 0.05091194996104843


PRECURSORMZ: 402.212247856
COMPOUNDNAME: casmi2022challengebonus136
FORMULA: C19H28O8
SMILES: CC1CC(C2C(C(C(C2(C1C(=O)O)O)(C)C=O)OC(=O)C)(C)C)OC(=O)C
INCHIKEY: KABDICRTRLPPFE-DHLSWZRESA-N
PRECURSORTYPE: [M+NH4]+
PRECURSORINTENSITY: 2064301.919922
IONMODE: positive
CHARGE: 1
PARENTMASS: 384.178424856
NUM PEAKS: 17
59.70376968 0.057945224865514386
119.0854645 0.34720803657318544
131.0856018 0.10845929397690751
145.0645142 0.06490398489442462
157.1011963 0.10067706506503057
159.1172333 0.06874383672942473
163.0751343 0.304602728733134
170.1088715 0.1192303719044072
173.1323395 1.0
185.1321106 0.0986591616457135
187.1121063 0.06108616639595484
201.1273651 0.6279313061822238
219.1374817 0.6078706617282293
220.525589  0.09303087236123415
229.1220398 0.40471735900718836
247.132309  0.46041325307729175
295.0908508 0.05091194996104843


