PRECURSORMZ: 377.1958646159999
COMPOUNDNAME: casmi2022challengebonus228
FORMULA: C21H28O6
SMILES: CC1=C2COC(=O)C2=C(C(=C1OC)CC=C(C)CCCC(C)C(=O)OC)O
INCHIKEY: WTKBSOWHEPFXEG-ZDUSSCGKSA-N
PRECURSORTYPE: [M+H]+
PRECURSORINTENSITY: 117999206.375
IONMODE: positive
CHARGE: 1
PARENTMASS: 376.1885886159999
NUM PEAKS: 64
50.89300919 0.0013908188990843738
51.76427078 0.005253351384028113
51.76708603 0.004090699312057851
53.03890228 0.003315223843372106
53.18793869 0.001434321146471189
55.05448914 0.014655926821677554
61.44501877 0.001406484166576248
65.0389328  0.0027564061949042333
67.05413818 0.006974060810949272
69.03343964 0.0018423914702945872
69.06987    0.0021373555363226808
77.03884888 0.005312251807539156
78.89057159 0.001371821766442077
79.05420685 0.005578272258393824
81.06984711 0.015293675311112108
91.05423737 0.1877497793822114
93.06984711 0.007055044189279735
95.04917908 0.01363353614698676
95.0856781  0.0017685128818010346
102.0465622 0.001568951938805618
103.0362701 0.0013479272145911205
103.0541687 0.1864890392412691
105.0445557 0.0033905308524455817
105.0697937 0.008825062350191561
107.0851822 0.0027949780153730735
115.0542068 0.0016607159220219292
117.033432  0.007868664770076219
119.0854034 0.006171338833612999
121.064743  0.00611719152024332
123.0801163 0.0018717745504287485
131.0490112 0.05767848385267198
131.085968  0.001604463450302603
133.0645905 0.0028385134299267365
133.101593  0.0020858277913038585
135.080307  0.03868045824819066
145.0653229 0.002861997059715351
149.0592804 0.0107237219190437
151.0749817 0.001611765648565272
159.0112152 0.008120174585434906
159.0439148 1.0
159.0679016 0.006177187098090477
159.0740051 0.005330209595981862
161.0596619 0.013987283116324132
163.0755463 0.00250658949963012
169.0493317 0.0035240720714575487
175.0749969 0.009668096467510994
177.0168304 0.007498155624877996
177.0544434 0.8902865226840153
177.0823517 0.00414776533611015
177.0901642 0.007488556919226172
177.1042786 0.0038341302280945865
179.0701447 0.051403286500885534
187.0377045 0.0022019560882631174
189.0910645 0.0064886267947927585
195.0652771 0.006889011265529276
203.0705414 0.002628966618389559
203.1061859 0.009308781878954087
207.0082245 0.0016808373897288652
207.0187378 0.0021090443297248273
207.0649872 0.5840602963989479
221.0801697 0.014201023820434713
221.1110229 0.0016533191654422368
247.0961456 0.0066557918670269705
302.1696777 0.0015461955948246648


PRECURSORMZ: 377.1958646159999
COMPOUNDNAME: casmi2022challengebonus228
FORMULA: C21H28O6
SMILES: CC1=C2COC(=O)C2=C(C(=C1OC)CC=C(C)CCCC(C)C(=O)OC)O
INCHIKEY: WTKBSOWHEPFXEG-ZDUSSCGKSA-N
PRECURSORTYPE: [M+H]+
PRECURSORINTENSITY: 117999206.375
IONMODE: positive
CHARGE: 1
PARENTMASS: 376.1885886159999
NUM PEAKS: 64
50.89300919 0.0013908188990843738
51.76427078 0.005253351384028113
51.76708603 0.004090699312057851
53.03890228 0.003315223843372106
53.18793869 0.001434321146471189
55.05448914 0.014655926821677554
61.44501877 0.001406484166576248
65.0389328  0.0027564061949042333
67.05413818 0.006974060810949272
69.03343964 0.0018423914702945872
69.06987    0.0021373555363226808
77.03884888 0.005312251807539156
78.89057159 0.001371821766442077
79.05420685 0.005578272258393824
81.06984711 0.015293675311112108
91.05423737 0.1877497793822114
93.06984711 0.007055044189279735
95.04917908 0.01363353614698676
95.0856781  0.0017685128818010346
102.0465622 0.001568951938805618
103.0362701 0.0013479272145911205
103.0541687 0.1864890392412691
105.0445557 0.0033905308524455817
105.0697937 0.008825062350191561
107.0851822 0.0027949780153730735
115.0542068 0.0016607159220219292
117.033432  0.007868664770076219
119.0854034 0.006171338833612999
121.064743  0.00611719152024332
123.0801163 0.0018717745504287485
131.0490112 0.05767848385267198
131.085968  0.001604463450302603
133.0645905 0.0028385134299267365
133.101593  0.0020858277913038585
135.080307  0.03868045824819066
145.0653229 0.002861997059715351
149.0592804 0.0107237219190437
151.0749817 0.001611765648565272
159.0112152 0.008120174585434906
159.0439148 1.0
159.0679016 0.006177187098090477
159.0740051 0.005330209595981862
161.0596619 0.013987283116324132
163.0755463 0.00250658949963012
169.0493317 0.0035240720714575487
175.0749969 0.009668096467510994
177.0168304 0.007498155624877996
177.0544434 0.8902865226840153
177.0823517 0.00414776533611015
177.0901642 0.007488556919226172
177.1042786 0.0038341302280945865
179.0701447 0.051403286500885534
187.0377045 0.0022019560882631174
189.0910645 0.0064886267947927585
195.0652771 0.006889011265529276
203.0705414 0.002628966618389559
203.1061859 0.009308781878954087
207.0082245 0.0016808373897288652
207.0187378 0.0021090443297248273
207.0649872 0.5840602963989479
221.0801697 0.014201023820434713
221.1110229 0.0016533191654422368
247.0961456 0.0066557918670269705
302.1696777 0.0015461955948246648


