PRECURSORMZ: 293.16483925999995
COMPOUNDNAME: casmi2022challengebonus52
FORMULA: C19H20N2O
SMILES: CC(=O)NCCC1=C(NC2=CC=CC=C21)CC3=CC=CC=C3
INCHIKEY: WVVXBPKOIZGVNS-UHFFFAOYSA-N
PRECURSORTYPE: [M+H]+
PRECURSORINTENSITY: 143858351.6016
IONMODE: positive
CHARGE: 1
PARENTMASS: 292.15756325999996
NUM PEAKS: 31
58.52936554 0.010413931541234621
58.53316879 0.006673927263460057
60.29889679 0.0005710295308863338
86.05999756 0.027484321531656728
91.04012299 0.0008531415243802593
91.05417633 0.12384720125228744
106.0649414 0.0037371681446401583
115.0551682 0.0010679016539182566
117.0697403 0.11064337459184635
118.0651855 0.0008851638451074322
130.065033  0.037340373857136
143.0728302 0.011064569896861703
156.0807648 0.026704860687566542
158.095047  0.0012798448441845298
159.0912628 0.0009091063293965646
205.0885925 0.005366002757866321
206.0967102 0.0011386489121824582
208.1109009 0.0011449155883861714
217.0974731 0.0007794218565566174
217.3931732 0.002523268614161963
218.0960083 0.003280070143664066
219.1041107 0.016556481994682716
222.127182  0.0034221944588116904
232.1107483 0.002391339599023932
234.0703278 0.008680677756481292
234.1274719 1.0
234.1808167 0.004985788173091912
234.2012482 0.0042143527628352275
258.1277161 0.00110272291967089
276.138916  0.006652286183287201
293.1641235 0.003796443591064836


PRECURSORMZ: 293.16483925999995
COMPOUNDNAME: casmi2022challengebonus52
FORMULA: C19H20N2O
SMILES: CC(=O)NCCC1=C(NC2=CC=CC=C21)CC3=CC=CC=C3
INCHIKEY: WVVXBPKOIZGVNS-UHFFFAOYSA-N
PRECURSORTYPE: [M+H]+
PRECURSORINTENSITY: 143858351.6016
IONMODE: positive
CHARGE: 1
PARENTMASS: 292.15756325999996
NUM PEAKS: 31
58.52936554 0.010413931541234621
58.53316879 0.006673927263460057
60.29889679 0.0005710295308863338
86.05999756 0.027484321531656728
91.04012299 0.0008531415243802593
91.05417633 0.12384720125228744
106.0649414 0.0037371681446401583
115.0551682 0.0010679016539182566
117.0697403 0.11064337459184635
118.0651855 0.0008851638451074322
130.065033  0.037340373857136
143.0728302 0.011064569896861703
156.0807648 0.026704860687566542
158.095047  0.0012798448441845298
159.0912628 0.0009091063293965646
205.0885925 0.005366002757866321
206.0967102 0.0011386489121824582
208.1109009 0.0011449155883861714
217.0974731 0.0007794218565566174
217.3931732 0.002523268614161963
218.0960083 0.003280070143664066
219.1041107 0.016556481994682716
222.127182  0.0034221944588116904
232.1107483 0.002391339599023932
234.0703278 0.008680677756481292
234.1274719 1.0
234.1808167 0.004985788173091912
234.2012482 0.0042143527628352275
258.1277161 0.00110272291967089
276.138916  0.006652286183287201
293.1641235 0.003796443591064836


