PRECURSORMZ: 233.058610928
COMPOUNDNAME: casmi2022challengebonus167
FORMULA: C10H14O4
SMILES: CC1=CC(=C(C=C1)C(CO)(CO)O)O
INCHIKEY: GSLQFCAUUPKMEV-UHFFFAOYSA-N
PRECURSORTYPE: [M+Cl]-
PRECURSORINTENSITY: 1704431.455078
IONMODE: negative
CHARGE: -1
PARENTMASS: 198.089208928
NUM PEAKS: 11
59.01249313 0.03508528918828581
64.56482697 0.017251094030666145
80.20560455 0.015683884596564376
86.60083771 0.015462041495396928
96.06781006 0.018595849974490052
107.0487289 0.32500174150681405
121.0644455 0.45358771085117305
133.0531006 0.03400315854513897
133.0644836 1.0
149.0592957 0.10197019735260762
161.0597534 0.15257969847541172


