PRECURSORMZ: 953.4751508440004
COMPOUNDNAME: casmi2022challengebonus77
FORMULA: C47H72O17
SMILES: CC1C(C(C(C(O1)OC2C(C(COC2OC3CCC4(C(C3(C)C)CCC5(C4C=CC6=C7C(C8(CCC7(CCC65C)C(=O)O8)C)(C)O)C)C)O)OC9C(C(C(C(O9)CO)O)O)O)O)O)O
INCHIKEY: ROLIIKCIEQNTMT-RLASXNLOSA-N
PRECURSORTYPE: [M+FA-H]-
PRECURSORINTENSITY: 9370722.099609
IONMODE: negative
CHARGE: -1
PARENTMASS: 908.4769498440004
NUM PEAKS: 28
71.01242065 1.0
72.99168396 0.055462077549154845
73.02822113 0.35757796068783837
78.11587524 0.036033958993540734
83.01238251 0.17876740450780157
85.02803802 0.7764454968393505
87.00749969 0.047707614077795696
88.51068115 0.03972616969945987
89.01751709 0.03839022924627827
89.02285004 0.3160620625723404
90.54750061 0.03793831933276877
95.01268768 0.051336362270842296
95.60728455 0.033083042501798304
99.00746918 0.0631208817420192
101.0229797 0.9862169386454225
103.0386429 0.06415679180236812
113.0230255 0.38951276015810127
131.0337524 0.6771830354123338
135.7232971 0.03497279019883904
221.3115692 0.06464642054133792
327.328186  0.040946091995705654
329.2477112 0.23397974953144385
391.4106445 0.03986024549531725
423.3259277 0.4640838640122813
427.164917  0.04484080491667053
455.3165283 0.058526916834612926
555.3689575 0.042560340604676804
776.4867554 0.03774545899105192


PRECURSORMZ: 953.4751508440004
COMPOUNDNAME: casmi2022challengebonus77
FORMULA: C47H72O17
SMILES: CC1C(C(C(C(O1)OC2C(C(COC2OC3CCC4(C(C3(C)C)CCC5(C4C=CC6=C7C(C8(CCC7(CCC65C)C(=O)O8)C)(C)O)C)C)O)OC9C(C(C(C(O9)CO)O)O)O)O)O)O
INCHIKEY: ROLIIKCIEQNTMT-RLASXNLOSA-N
PRECURSORTYPE: [M+FA-H]-
PRECURSORINTENSITY: 9370722.099609
IONMODE: negative
CHARGE: -1
PARENTMASS: 908.4769498440004
NUM PEAKS: 28
71.01242065 1.0
72.99168396 0.055462077549154845
73.02822113 0.35757796068783837
78.11587524 0.036033958993540734
83.01238251 0.17876740450780157
85.02803802 0.7764454968393505
87.00749969 0.047707614077795696
88.51068115 0.03972616969945987
89.01751709 0.03839022924627827
89.02285004 0.3160620625723404
90.54750061 0.03793831933276877
95.01268768 0.051336362270842296
95.60728455 0.033083042501798304
99.00746918 0.0631208817420192
101.0229797 0.9862169386454225
103.0386429 0.06415679180236812
113.0230255 0.38951276015810127
131.0337524 0.6771830354123338
135.7232971 0.03497279019883904
221.3115692 0.06464642054133792
327.328186  0.040946091995705654
329.2477112 0.23397974953144385
391.4106445 0.03986024549531725
423.3259277 0.4640838640122813
427.164917  0.04484080491667053
455.3165283 0.058526916834612926
555.3689575 0.042560340604676804
776.4867554 0.03774545899105192


