PRECURSORMZ: 275.12888312
COMPOUNDNAME: casmi2022challengebonus187
FORMULA: C16H20O4
SMILES: CC1=CC2=C(C=C1O)C(C(=O)C(=C2C(C)C)OC)(C)O
INCHIKEY: KUIKAQQHWIBPIM-INIZCTEOSA-N
PRECURSORTYPE: [M-H]-
PRECURSORINTENSITY: 6973532.785156
IONMODE: negative
CHARGE: -1
PARENTMASS: 276.13615912
NUM PEAKS: 39
53.72489548 0.01307469005538522
55.26778793 0.012903228279933659
86.67930603 0.014064444620666616
131.6206512 0.015359270731910422
168.2749329 0.013037459512808967
173.0598907 0.022562194221965728
174.0310059 0.12711174766446404
175.039032  0.05663389616263006
185.0588226 0.025816081496880416
186.067688  0.5603797744758222
186.0859222 0.029015703667550873
187.0395508 0.21159968592714368
188.0458069 0.01594569467693833
189.0546417 0.6183874796692144
189.0912323 0.09082153639051097
199.0756378 0.07290015102091982
200.0841827 0.026394885571278875
201.019043  0.024212603474411502
201.0573578 0.02384751443252039
201.0912933 0.7201075984478009
201.1085663 0.014436618642693706
202.0631409 0.32264572247392925
203.0701752 0.127115482622354
204.0419617 0.02035971150641108
215.1068115 0.14463483440383987
216.0421143 0.032212682304284
216.0779419 0.016945154567398694
216.6636047 0.05959557554414874
216.685318  0.018246663717946587
217.0498352 1.0
217.0864258 0.7210597406267151
218.0944214 0.019216135730447444
227.0710907 0.11568852736695165
228.0782471 0.34773323674221046
230.0575714 0.10747395744957881
242.0942535 0.027796289386120658
243.1021271 0.9267628679687934
245.0813904 0.7511019115168194
260.1046143 0.025429584467878324


