PRECURSORMZ: 509.13006489199984
COMPOUNDNAME: casmi2022challengebonus51
FORMULA: C23H26O13
SMILES: COC1=CC(=CC(=C1O)OC)C(=O)OCC2C(C(C(C(O2)OC3=C(C=C(C=C3)C(=O)O)OC)O)O)O
INCHIKEY: VZZORQCDLWXFQF-HQBFLTFPSA-N
PRECURSORTYPE: [M-H]-
PRECURSORINTENSITY: 33677721.75
IONMODE: negative
CHARGE: -1
PARENTMASS: 510.1373408919998
NUM PEAKS: 77
59.0123291  0.005424478114835618
60.3095665  0.0024445172782062295
68.99674988 0.0031459085815570623
71.0125351  0.03536931862324879
73.02803802 0.0036479262784749017
79.57129669 0.0024915410417931903
83.01234436 0.0037851758837299933
84.31565857 0.002644384735134119
85.02774811 0.013414252233497629
87.00688171 0.003697463253668018
87.62248993 0.002314044552461422
89.02267456 0.0033476769490491986
96.99132538 0.005197270837007998
97.02787781 0.003159742649014967
101.0227051 0.01611595765298478
106.0935287 0.0020710401284673727
107.0125656 0.011417549019750948
108.0202255 0.07909362971604453
111.0074234 0.005668400898427829
113.0230026 0.02497037294318056
121.0278473 0.009708697556748672
123.0076294 0.004280789893932385
123.0437927 0.14127416932647247
123.0540848 0.003957441604262897
123.6515732 0.00217151672461693
124.0151443 0.005422454523347739
127.0026779 0.0023645302356071914
136.9864197 0.004532219940764994
137.0229797 0.023242416363378333
138.0307922 0.016744935943356753
139.0023041 0.011688730143509445
139.0387268 0.04998231099259687
152.0102997 0.2975669380668381
152.0212555 0.005360617452066323
153.0171661 0.004298374282280952
153.0546265 0.05662419955093205
166.026123  0.1231794930785093
166.0421295 0.005130381224536554
166.3471985 0.003027898361579085
167.0007324 0.02491389336806894
167.033844  1.0
167.0766754 0.007930512794989832
168.0055389 0.03817433057695428
169.0131073 0.010504833111919586
177.0176086 0.003086571478963503
181.0132294 0.05097671289908741
181.0301514 0.004477466359338398
181.0496368 0.2170775400764845
182.0069122 0.0026036945811532155
182.0210114 0.08921553943103055
182.9897156 0.004536916762455185
183.0289307 0.4934348085387135
183.0431061 0.008704112581803567
192.0412598 0.003089331891711247
196.0365753 0.014461291797357594
197.0005341 0.003650731570001327
197.0446777 0.3263212335986751
197.0601959 0.006852643717328838
207.0290985 0.0036296797442113638
209.0460968 0.003072044733306733
211.0228882 0.003755676915359177
211.060379  0.010779681052611654
215.3587341 0.01931019957560508
225.0400391 0.02089315061433486
237.0390167 0.0038356523704046836
239.0559998 0.005576825014810918
251.0566406 0.003834005466370653
255.0515594 0.009489318315071368
267.0502319 0.003149614759386651
299.0791931 0.0026256474771758197
311.041687  0.00420698269594367
312.0480347 0.026940439498203343
326.0639343 0.061106615450984815
327.072113  0.10780789043442705
327.1071167 0.0029660706706981514
341.0874939 0.07191052957264903
532.8744507 0.0026787670296278053


PRECURSORMZ: 509.13006489199984
COMPOUNDNAME: casmi2022challengebonus51
FORMULA: C23H26O13
SMILES: COC1=CC(=CC(=C1O)OC)C(=O)OCC2C(C(C(C(O2)OC3=C(C=C(C=C3)C(=O)O)OC)O)O)O
INCHIKEY: VZZORQCDLWXFQF-HQBFLTFPSA-N
PRECURSORTYPE: [M-H]-
PRECURSORINTENSITY: 33677721.75
IONMODE: negative
CHARGE: -1
PARENTMASS: 510.1373408919998
NUM PEAKS: 77
59.0123291  0.005424478114835618
60.3095665  0.0024445172782062295
68.99674988 0.0031459085815570623
71.0125351  0.03536931862324879
73.02803802 0.0036479262784749017
79.57129669 0.0024915410417931903
83.01234436 0.0037851758837299933
84.31565857 0.002644384735134119
85.02774811 0.013414252233497629
87.00688171 0.003697463253668018
87.62248993 0.002314044552461422
89.02267456 0.0033476769490491986
96.99132538 0.005197270837007998
97.02787781 0.003159742649014967
101.0227051 0.01611595765298478
106.0935287 0.0020710401284673727
107.0125656 0.011417549019750948
108.0202255 0.07909362971604453
111.0074234 0.005668400898427829
113.0230026 0.02497037294318056
121.0278473 0.009708697556748672
123.0076294 0.004280789893932385
123.0437927 0.14127416932647247
123.0540848 0.003957441604262897
123.6515732 0.00217151672461693
124.0151443 0.005422454523347739
127.0026779 0.0023645302356071914
136.9864197 0.004532219940764994
137.0229797 0.023242416363378333
138.0307922 0.016744935943356753
139.0023041 0.011688730143509445
139.0387268 0.04998231099259687
152.0102997 0.2975669380668381
152.0212555 0.005360617452066323
153.0171661 0.004298374282280952
153.0546265 0.05662419955093205
166.026123  0.1231794930785093
166.0421295 0.005130381224536554
166.3471985 0.003027898361579085
167.0007324 0.02491389336806894
167.033844  1.0
167.0766754 0.007930512794989832
168.0055389 0.03817433057695428
169.0131073 0.010504833111919586
177.0176086 0.003086571478963503
181.0132294 0.05097671289908741
181.0301514 0.004477466359338398
181.0496368 0.2170775400764845
182.0069122 0.0026036945811532155
182.0210114 0.08921553943103055
182.9897156 0.004536916762455185
183.0289307 0.4934348085387135
183.0431061 0.008704112581803567
192.0412598 0.003089331891711247
196.0365753 0.014461291797357594
197.0005341 0.003650731570001327
197.0446777 0.3263212335986751
197.0601959 0.006852643717328838
207.0290985 0.0036296797442113638
209.0460968 0.003072044733306733
211.0228882 0.003755676915359177
211.060379  0.010779681052611654
215.3587341 0.01931019957560508
225.0400391 0.02089315061433486
237.0390167 0.0038356523704046836
239.0559998 0.005576825014810918
251.0566406 0.003834005466370653
255.0515594 0.009489318315071368
267.0502319 0.003149614759386651
299.0791931 0.0026256474771758197
311.041687  0.00420698269594367
312.0480347 0.026940439498203343
326.0639343 0.061106615450984815
327.072113  0.10780789043442705
327.1071167 0.0029660706706981514
341.0874939 0.07191052957264903
532.8744507 0.0026787670296278053


