PRECURSORMZ: 332.133997536
COMPOUNDNAME: casmi2022challengebonus184
FORMULA: C14H18O8
SMILES: C1=CC=C(C=C1)C(C(=O)O)OC2C(C(C(C(O2)CO)O)O)O
INCHIKEY: PRBPGFIPERGSFI-USKPATFNSA-N
PRECURSORTYPE: [M+NH4]+
PRECURSORINTENSITY: 6599754.9375
IONMODE: positive
CHARGE: 1
PARENTMASS: 314.100174536
NUM PEAKS: 29
53.03881073 0.06257479483015976
54.64413071 0.008812082069554741
55.01807022 0.05365982350173613
57.03385162 0.10307138158258576
61.02859497 0.18776414242770126
69.03356171 0.4329991081272912
71.04908752 0.023193721290992706
73.02841187 0.07545599555088786
79.05428314 0.3128192606197193
81.03352356 0.1462023447673429
83.0125885  0.012827794961067463
85.02257538 0.02337338020970609
85.02844238 1.0
86.5975647  0.00951757574814378
87.04404449 0.015631318611948233
91.03865051 0.011239624072011518
95.04930115 0.011000874118210309
97.02852631 0.24286328165992996
99.04401398 0.035798536483016244
101.0230789 0.015364837791999854
107.0490036 0.22443780455793894
109.0285721 0.07069064510911952
116.6418228 0.009825028488130081
127.0389252 0.01809418835739244
135.0438995 0.12188823325573735
216.9537506 0.04090018124089007
221.0354462 0.010144515675822993
268.0565796 0.010061267225741615
307.6432495 0.010134392829529458


