PRECURSORMZ: 553.2255466559999
COMPOUNDNAME: casmi2022challengebonus62
FORMULA: C25H38O12
SMILES: CC1=CC(=O)CC(C1(C=CC(C)OC2C(C(C(C(O2)COC(=O)CC(C)(CC(=O)O)O)O)O)O)O)(C)C
INCHIKEY: JQZXPIPFYNVPHJ-GPFYMJNESA-N
PRECURSORTYPE: [M+Na]+
PRECURSORINTENSITY: 5586722.125
IONMODE: positive
CHARGE: 1
PARENTMASS: 530.2363286559998
NUM PEAKS: 17
56.50139618 0.03950914838983572
61.19480133 0.039850953629026194
68.38845825 0.045539570274878975
79.8490448  0.05335676832726169
185.0420074 0.09977404701933605
225.7294006 0.04053483083818944
274.7684326 0.040208405706286136
285.0944519 0.28759891280204675
287.0736084 0.33145979442984713
307.1401062 0.1663908971300293
329.0846252 0.16773075561203207
347.0960693 0.5068013559181372
409.1824341 0.4840619411579747
491.2258301 1.0
493.2064514 0.4281878333601323
535.2149658 0.06320273712727698
553.2242432 0.26351903223440687


PRECURSORMZ: 553.2255466559999
COMPOUNDNAME: casmi2022challengebonus62
FORMULA: C25H38O12
SMILES: CC1=CC(=O)CC(C1(C=CC(C)OC2C(C(C(C(O2)COC(=O)CC(C)(CC(=O)O)O)O)O)O)O)(C)C
INCHIKEY: JQZXPIPFYNVPHJ-GPFYMJNESA-N
PRECURSORTYPE: [M+Na]+
PRECURSORINTENSITY: 5586722.125
IONMODE: positive
CHARGE: 1
PARENTMASS: 530.2363286559998
NUM PEAKS: 17
56.50139618 0.03950914838983572
61.19480133 0.039850953629026194
68.38845825 0.045539570274878975
79.8490448  0.05335676832726169
185.0420074 0.09977404701933605
225.7294006 0.04053483083818944
274.7684326 0.040208405706286136
285.0944519 0.28759891280204675
287.0736084 0.33145979442984713
307.1401062 0.1663908971300293
329.0846252 0.16773075561203207
347.0960693 0.5068013559181372
409.1824341 0.4840619411579747
491.2258301 1.0
493.2064514 0.4281878333601323
535.2149658 0.06320273712727698
553.2242432 0.26351903223440687


