PRECURSORMZ: 580.3843985599998
COMPOUNDNAME: casmi2022challengebonus207
FORMULA: C32H50O8
SMILES: CC1CC(OC(=O)C1C2(CCC34CC35CCC(C(C5CCC4C2(C)C(=O)O)(C)C)O)C)C(C(C)(C)O)OC(=O)C
INCHIKEY: GEQDRLKIGRWJJA-UHFFFAOYSA-N
PRECURSORTYPE: [M+NH4]+
PRECURSORINTENSITY: 74265409.83594
IONMODE: positive
CHARGE: 1
PARENTMASS: 562.3505755599998
NUM PEAKS: 117
61.25128174 0.01764648002821431
69.03374481 0.022338360568399118
69.0700531  0.10219414868816627
81.06987762 0.06801790704798245
83.08563995 0.029482133068722383
84.11334229 0.016412595093103517
93.07012939 0.028135945643788216
95.08558655 0.4647290045679814
97.06510162 0.0261257004784631
97.10137177 0.0348925700870888
103.8907776 0.01936546140349499
107.0854187 0.2190065720681741
109.1011353 0.25737253728114345
111.0804062 0.02922031086036325
113.059845  0.02419132251002121
113.0959625 0.02408164751866233
119.0852509 0.13880621739376398
121.1007156 0.18183031484755574
123.0806961 0.07922433855810189
123.1172714 0.096373962754913
125.0964508 0.13126785144797798
131.0858154 0.027508102214488732
133.1013794 0.17566819471486794
135.1163788 0.1405792786126715
137.0957184 0.023867618098916566
139.2201538 0.016812527314327846
145.1012421 0.3407174490919987
147.1164856 0.2644485023511303
149.096344  0.04597841593061741
149.1324921 0.3416963355439678
151.1119537 0.023809305602957378
157.1024628 0.03270206929928608
159.0644836 0.02268811655392804
159.1167297 0.2812889899402457
161.1319885 0.15945218725988258
162.3085632 0.01897644957099021
163.1110992 0.020500809075257306
163.1482391 0.03056770761453523
165.0909729 0.07405367898741008
165.1283875 0.08177766968608494
167.1069336 0.07407409673887906
169.1018829 0.03640728652628889
171.1167755 0.14336579658682025
173.1324158 0.2696488511974477
175.1110077 0.027981797448290054
175.1481018 0.0928962524120533
177.1268463 0.027556672082130414
185.13237   0.15023624368079333
187.1479645 0.4309967810278331
189.1643066 0.03507560862383656
191.1431122 0.020651931519288968
193.122757  0.023203987751991187
199.1482239 0.17372951852805069
201.1641998 0.1214011236096502
203.1426544 0.02613844214615551
205.1588135 0.03646748343889175
211.1480713 0.044456836912248505
213.1643219 0.07734466695325341
215.1806183 0.030493520851050736
215.4008484 0.14106586607322696
219.1363525 0.021798616045562942
223.1486511 0.022111837174901217
225.1645203 0.09187779321056729
227.1799316 0.1329247684926159
229.1956635 0.04229446395689884
231.1737671 0.023093377837426363
237.1655731 0.018832575817269555
239.180603  0.02224511594174518
245.19133   0.021222084115851914
251.180542  0.043990084393890794
253.1949921 0.20601460722074266
255.1802673 0.02758552114105663
255.2104797 1.0
255.2402039 0.0388649859379779
265.1966553 0.022077422287434693
267.2113342 0.020253663947045482
269.1916504 0.01940562910414301
271.2037354 0.06397821315184497
273.1870422 0.08803723552892351
273.2206421 0.7649021222339095
273.2519226 0.03861466935598177
279.2107239 0.06820339581204136
283.1700745 0.022948343321907164
285.1841736 0.021261426170032353
293.2269897 0.025096874557064955
295.2062073 0.03962998624414704
295.2407227 0.024081924353066168
297.2218323 0.09210460315195687
299.2013245 0.02790353830502279
305.2257385 0.08490735547262568
307.2421265 0.032013174170452595
313.2153931 0.04106313852583757
315.2319336 0.024161458391614262
321.2199097 0.026865149454832437
321.2583618 0.0877207506676663
323.2355347 0.15989339330518443
331.2381592 0.02523430583996648
337.2111206 0.02110904097257968
337.2527161 0.026876482666786026
339.269989  0.10262331972201708
341.2479858 0.073647868891848
349.251709  0.19780276630809132
351.2302551 0.023160165351538118
353.2453308 0.026214746449992166
365.2493591 0.15306634607494274
367.2630615 0.536528115030076
375.3035889 0.03305752953055723
383.2574463 0.07984699741325933
385.2748413 0.20516090820023525
393.313446  0.12857863348166218
399.2897949 0.03190196444801279
403.2996216 0.25676165603000894
421.3097839 0.7327399091625699
439.3196411 0.32993539986621806
463.3235168 0.0279258501866233
481.3325195 0.18157098414883116
499.342926  0.30015493401666554


