PRECURSORMZ: 1227.5570850639997
COMPOUNDNAME: casmi2022challengebonus14
FORMULA: C57H92O26
SMILES: CC1C(C(C(C(O1)OC2C(COC(C2O)OC3C(OC(C(C3OC4C(C(CO4)(CO)O)O)O)OC5C(C(COC5OC(=O)C67CCC(CC6C8=CCC9C1(CC(C(C(C1C(CC9(C8(CC7)C)C)O)(C)CO)O)O)C)(C)C)O)O)C)O)O)O)O
INCHIKEY: GKIBQZNTGYPVPX-BFWMOCKMSA-N
PRECURSORTYPE: [M+Cl]-
PRECURSORINTENSITY: 1256036.34375
IONMODE: negative
CHARGE: -1
PARENTMASS: 1192.5876830639997
NUM PEAKS: 30
85.02812958 0.11294137355113763
99.04388428 0.025946859349990737
101.0228729 0.048564050192230965
103.0383682 0.025960578940060982
113.0230942 0.39420934574401234
127.0393524 0.04395679089150852
127.7377472 0.028314646300976194
131.0337524 0.4487719125594346
143.0337219 0.09090782159236253
145.049057  0.02881880205961526
163.0592957 0.03679530591003271
205.0718536 0.0353414407152302
208.0534515 0.0279286643215128
209.5540466 0.023934575106411254
277.0917969 0.10209787497574978
294.3270569 0.025342972122357317
304.2970276 0.051990527606385194
304.8670959 0.024781569787504044
337.1125183 0.23444867619667578
361.1146545 0.02696876313390246
379.1229553 0.1049800074779993
409.1321106 0.0269797325377279
423.1512756 0.12043284170554798
469.155304  0.03970509698049922
483.1709595 1.0
503.3366699 0.8899010340386869
555.1950684 0.2829670231513969
579.835083  0.025121415629770712
615.2133179 0.32948522468316443
687.2336426 0.08934921817924821


