PRECURSORMZ: 417.13913758799987
COMPOUNDNAME: casmi2022challengebonus133
FORMULA: C18H24O11
SMILES: CC(=O)OCC1C(C(C(C(O1)OC2C(C3(CCOC(=O)C3=CO2)O)C=C)O)O)O
INCHIKEY: IQWFMLIFUZTUPY-TYRDIDCNSA-N
PRECURSORTYPE: [M+H]+
PRECURSORINTENSITY: 7523261.654297
IONMODE: positive
CHARGE: 1
PARENTMASS: 416.1318615879999
NUM PEAKS: 36
50.93198395 0.003936916056492206
53.03871536 0.004036242197345762
56.19581604 0.003890368894056183
61.02850723 0.0047609997665567835
69.03356171 0.0426561756192006
73.02836609 0.005091134408885129
81.03363037 0.044910410151307444
85.02832031 0.05542859143499212
86.73378754 0.003894409220952617
93.06951904 0.00915986890362741
95.08529663 0.00410780536792326
97.0284729  0.039381096661829165
99.0439682  0.01481982045112668
105.0695267 0.030291730106728657
107.631691  0.005103935761888717
109.0284195 0.11378087746493303
115.0021133 0.004409341365285219
121.064682  0.03306259401627866
125.0595779 0.023847629745882847
127.0388565 0.11084193201230755
131.0484619 0.005098746690432369
137.0593414 0.008870860220420121
139.0751953 0.10469870247806454
143.0338898 0.09136671823209533
145.0489349 0.01910914389363021
147.043808  0.0057006514522183055
149.0597229 0.0718184252343005
167.0702057 0.22776935065634432
167.0828705 0.005320609282019155
177.0544891 1.0
187.0600281 0.08324260606866336
195.0651245 0.13976119996693193
205.0710754 0.005638558028908642
213.0749969 0.00979291014841512
215.7809906 0.020806495329766667
215.8032532 0.006225944894496754


