PRECURSORMZ: 717.14610888
COMPOUNDNAME: casmi2022challengebonus248
FORMULA: C36H30O16
SMILES: C1=CC(=CC=C1C2C(C(=O)C3=C(C=C(C=C3O2)O)O)C4=C(C=C(C5=C4OC(=CC5=O)C6=CC(=C(C=C6)O)O)O)OC7C(C(C(C(O7)CO)O)O)O)O
INCHIKEY: XUDCXSSDAZIAPT-IFVSHKQPSA-N
PRECURSORTYPE: [M-H]-
PRECURSORINTENSITY: 3447366.875
IONMODE: negative
CHARGE: -1
PARENTMASS: 718.1533848800001
NUM PEAKS: 23
59.46202469 0.03641900843307504
60.35930252 0.0456137976534304
61.82705307 0.043327641307602804
65.00189972 0.3171206016589792
75.01164246 0.04749236175124127
83.01243591 0.06394177481368005
99.65492249 0.04303903316364078
107.0125809 0.5989105678286528
116.1356277 0.04725388053743472
117.6411209 0.043907503819124
118.712326  0.044854062060254093
119.8342209 0.05135877123105498
125.0232315 0.06653189256730782
151.0024414 1.0
191.844635  0.04688055633142028
221.285965  0.06808896448731024
309.0420532 0.08373913682769682
401.0670166 0.09540947745166527
402.0740662 0.2905905160527231
403.081665  0.3814616720531034
409.8556824 0.04517368674971995
429.0610046 0.2104739818276407
554.7144165 0.04415390894097282


PRECURSORMZ: 717.14610888
COMPOUNDNAME: casmi2022challengebonus248
FORMULA: C36H30O16
SMILES: C1=CC(=CC=C1C2C(C(=O)C3=C(C=C(C=C3O2)O)O)C4=C(C=C(C5=C4OC(=CC5=O)C6=CC(=C(C=C6)O)O)O)OC7C(C(C(C(O7)CO)O)O)O)O
INCHIKEY: XUDCXSSDAZIAPT-IFVSHKQPSA-N
PRECURSORTYPE: [M-H]-
PRECURSORINTENSITY: 3447366.875
IONMODE: negative
CHARGE: -1
PARENTMASS: 718.1533848800001
NUM PEAKS: 23
59.46202469 0.03641900843307504
60.35930252 0.0456137976534304
61.82705307 0.043327641307602804
65.00189972 0.3171206016589792
75.01164246 0.04749236175124127
83.01243591 0.06394177481368005
99.65492249 0.04303903316364078
107.0125809 0.5989105678286528
116.1356277 0.04725388053743472
117.6411209 0.043907503819124
118.712326  0.044854062060254093
119.8342209 0.05135877123105498
125.0232315 0.06653189256730782
151.0024414 1.0
191.844635  0.04688055633142028
221.285965  0.06808896448731024
309.0420532 0.08373913682769682
401.0670166 0.09540947745166527
402.0740662 0.2905905160527231
403.081665  0.3814616720531034
409.8556824 0.04517368674971995
429.0610046 0.2104739818276407
554.7144165 0.04415390894097282


