PRECURSORMZ: 193.085920244
COMPOUNDNAME: casmi2022challengebonus156
FORMULA: C11H12O3
SMILES: CC(=O)C=CC1=CC(=C(C=C1)O)OC
INCHIKEY: AFWKBSMFXWNGRE-UHFFFAOYSA-N
PRECURSORTYPE: [M+H]+
PRECURSORINTENSITY: 31184641.28223
IONMODE: positive
CHARGE: 1
PARENTMASS: 192.078644244
NUM PEAKS: 46
64.74906921 0.0011055039447587162
69.03387451 0.0010501379713396385
71.04923248 0.0062569762711957196
85.41819763 0.0011067088861072645
91.05438995 0.007380292306913473
95.04909515 0.007908534464575075
95.65985107 0.0011578353193572224
103.0544434 0.001267098206226097
105.069931  0.019341915171751503
107.0487289 0.0019267768016947829
107.9596481 0.010626668295620206
115.0542145 0.30370693485542954
115.0792999 0.0018265385617335656
117.0698547 0.0023038982486683368
119.0492477 0.011519717139118778
119.0855637 0.00639212782192446
123.0440292 0.013843151808317768
129.0702972 0.005868723619306133
131.0485382 0.0015655512644720513
132.0568848 0.001524175220547443
133.0534363 0.0014040811350693413
133.0647736 0.053415298736885594
136.0519867 0.0021207260243670976
137.0600128 0.0013113962697918328
143.0228424 0.0024970703554546103
143.0491028 0.38705820744339475
143.0836945 0.0017082018667433278
147.080246  0.030895653837220725
151.0753174 0.06329252989300695
151.0862732 0.0014233979278776645
151.9506378 0.0020851714055664526
157.0634155 0.0011560292592677902
160.0518188 0.03913544098442491
161.0596161 0.15789685149877675
163.0394897 0.0074761365175914085
165.0917816 0.002284044984115186
169.9599915 0.0012192949481213116
175.0384064 0.006259945116892938
175.0752716 0.647934980464199
177.0538177 0.0017164148620122603
178.0624237 0.015521689675792729
193.0432739 0.0097701776971006
193.0525513 0.004791794630028595
193.0858459 1.0
193.1413574 0.0050015021110533095
194.108551  0.001072220574032446


