PRECURSORMZ: 209.078428928
COMPOUNDNAME: casmi2022challengebonus92
FORMULA: C9H14O4
SMILES: C(CCC(=O)O)CC=CCC(=O)O
INCHIKEY: PPVPALXLGVOWHV-UHFFFAOYSA-N
PRECURSORTYPE: [M+Na]+
PRECURSORINTENSITY: 2465709.172852
IONMODE: positive
CHARGE: 1
PARENTMASS: 186.089210928
NUM PEAKS: 12
53.04954529 0.12658614090212708
61.01074982 0.19432462183012142
72.93736267 0.16865491055366413
76.18344116 0.10602654931375854
79.02132416 0.787123568822711
90.83355713 0.10291687920379525
90.94783783 0.19365680779766362
116.9092484 0.2253598738919355
134.9195709 1.0
152.9304962 0.14780558628961918
192.9438324 0.10039874361226227
220.0598602 0.22011172177588229


PRECURSORMZ: 209.078428928
COMPOUNDNAME: casmi2022challengebonus92
FORMULA: C9H14O4
SMILES: C(CCC(=O)O)CC=CCC(=O)O
INCHIKEY: PPVPALXLGVOWHV-UHFFFAOYSA-N
PRECURSORTYPE: [M+Na]+
PRECURSORINTENSITY: 2465709.172852
IONMODE: positive
CHARGE: 1
PARENTMASS: 186.089210928
NUM PEAKS: 12
53.04954529 0.12658614090212708
61.01074982 0.19432462183012142
72.93736267 0.16865491055366413
76.18344116 0.10602654931375854
79.02132416 0.787123568822711
90.83355713 0.10291687920379525
90.94783783 0.19365680779766362
116.9092484 0.2253598738919355
134.9195709 1.0
152.9304962 0.14780558628961918
192.9438324 0.10039874361226227
220.0598602 0.22011172177588229


