PRECURSORMZ: 265.107049612
COMPOUNDNAME: casmi2022challengebonus4
FORMULA: C14H16O5
SMILES: CCC1(C(C2=COC(=C(C2=CC1=O)C)C(=O)O)O)C
INCHIKEY: CNXACDYPVKUDEK-UHFFFAOYSA-N
PRECURSORTYPE: [M+H]+
PRECURSORINTENSITY: 14657013.68555
IONMODE: positive
CHARGE: 1
PARENTMASS: 264.09977361200004
NUM PEAKS: 64
54.77350235 0.0016443329092604739
57.03384018 0.009966200320485131
57.07016373 0.19583473494088424
57.07302856 0.002792145432294044
57.07849503 0.001403875273949106
61.01083374 0.0017112595914998499
62.01852036 0.0016966005738079245
66.27371979 0.008551282111394009
66.27822876 0.006945278822801665
69.06983185 0.00575445649003714
70.86862946 0.001311326842006233
73.06496429 0.00887989409369504
85.06494904 0.02305751615056524
91.548172   0.0011732595559310964
93.95428467 0.001164426638872027
95.24565125 0.0011032040972456388
103.8134918 0.0013123040172965735
119.0853195 0.006126130825265068
123.1117477 0.0011079040434044869
135.6086578 0.0012135897694641733
142.0769196 0.0010962267452870882
142.9505463 0.01873033363709395
145.1013489 0.005263223743479791
147.0802155 0.010834891425628443
147.1164093 0.0027452405911761934
157.1011658 0.0022594857931810355
160.565506  0.001219769361923357
173.0597229 0.023399494609297064
173.0961304 0.005781782796550449
175.040329  0.001890722265572137
175.1109467 0.002313706740358052
181.0496521 0.006318508552822524
183.0283356 0.006702026038979417
186.9398041 0.006614679597024889
187.0754395 0.011091438919565079
191.0338745 0.006000666644147991
191.0701752 0.020214994181597157
191.1046448 0.0015490907841647144
192.0403137 0.0013533023410610063
193.0492859 0.02663375301637245
197.0448761 0.0018857524481609561
201.0909119 0.002374926825696814
204.0781403 0.0016002217215219338
204.9483948 0.0019349217728697188
204.9665527 0.002746209863628142
205.0500336 0.016012247625888234
205.0852814 0.021962608218137232
206.0562744 0.0016818459744892698
209.0440674 0.009745843554679426
209.0796661 0.0014456663378425072
217.8691711 0.0014554966144684394
218.0574799 0.0075904763760596536
219.0649567 0.10891308806549943
219.1014862 0.26530569115364366
232.0734711 0.002312755623075454
237.1115417 0.020624125407824052
240.5870056 0.0012474585582330428
247.0964508 0.17080588351471118
265.0064087 0.001563676967589074
265.0396423 0.008938498125928588
265.1070251 1.0
265.1755676 0.004616275177537564
265.1930847 0.005929814921094781
266.2843933 0.0011240644935999427


