PRECURSORMZ: 331.1751291719999
COMPOUNDNAME: casmi2022challengebonus105
FORMULA: C16H26O7
SMILES: CC1(C2CC1C(C(=O)C2)(C)OC3C(C(C(C(O3)CO)O)O)O)C
INCHIKEY: GJOYPICCRRYJFZ-IHJCDDSVSA-N
PRECURSORTYPE: [M+H]+
PRECURSORINTENSITY: 385742.4082031
IONMODE: positive
CHARGE: 1
PARENTMASS: 330.1678531719999
NUM PEAKS: 22
56.7138176  0.01836216540086109
59.12911987 0.01905419279122728
60.11976242 0.01726928507430907
60.41576767 0.020529048037797835
67.0542984  0.1025095296511099
73.17783356 0.01705294464640727
75.68775177 0.016972013522612555
77.97306061 0.02310717250250437
81.06988525 0.08398429496837914
85.02849579 0.024508610676084723
95.04890442 0.042043338332876753
107.0855865 0.08989476609111466
109.064621  0.036709308997686124
109.1011276 1.0
123.1166153 0.19962370422875622
133.1010132 0.03981833961926042
151.1114044 0.019802619120806594
215.0713654 0.019510770826618725
220.5004883 0.02890030939710364
231.2971649 0.01693053142793144
250.3957214 0.019368510815766293
298.2233276 0.020327397741902935


PRECURSORMZ: 331.1751291719999
COMPOUNDNAME: casmi2022challengebonus105
FORMULA: C16H26O7
SMILES: CC1(C2CC1C(C(=O)C2)(C)OC3C(C(C(C(O3)CO)O)O)O)C
INCHIKEY: GJOYPICCRRYJFZ-IHJCDDSVSA-N
PRECURSORTYPE: [M+H]+
PRECURSORINTENSITY: 385742.4082031
IONMODE: positive
CHARGE: 1
PARENTMASS: 330.1678531719999
NUM PEAKS: 22
56.7138176  0.01836216540086109
59.12911987 0.01905419279122728
60.11976242 0.01726928507430907
60.41576767 0.020529048037797835
67.0542984  0.1025095296511099
73.17783356 0.01705294464640727
75.68775177 0.016972013522612555
77.97306061 0.02310717250250437
81.06988525 0.08398429496837914
85.02849579 0.024508610676084723
95.04890442 0.042043338332876753
107.0855865 0.08989476609111466
109.064621  0.036709308997686124
109.1011276 1.0
123.1166153 0.19962370422875622
133.1010132 0.03981833961926042
151.1114044 0.019802619120806594
215.0713654 0.019510770826618725
220.5004883 0.02890030939710364
231.2971649 0.01693053142793144
250.3957214 0.019368510815766293
298.2233276 0.020327397741902935


