PRECURSORMZ: 611.197046388
COMPOUNDNAME: casmi2022challengebonus139
FORMULA: C28H34O15
SMILES: CC1C(C(C(C(O1)OCC2C(C(C(C(O2)OC3=CC(=C4C(=O)CC(OC4=C3)C5=CC(=C(C=C5)OC)O)O)O)O)O)O)O)O
INCHIKEY: QUQPHWDTPGMPEX-SGHBVPQBSA-N
PRECURSORTYPE: [M+H]+
PRECURSORINTENSITY: 477168.765625
IONMODE: positive
CHARGE: 1
PARENTMASS: 610.1897703879999
NUM PEAKS: 14
50.09144211 0.09291109196811073
51.929142   0.08976142032266063
54.92404175 0.09213980118510587
57.03378296 0.08949606947708459
59.29717636 0.09152316323293978
69.02427673 0.08760341726618613
71.04933929 0.21991792938394775
85.02805328 0.1789744416891355
153.0180969 1.0
172.1204529 0.10436290746961456
177.0537567 0.18365473753262104
290.3474426 0.1053286428973054
350.4206543 0.10691681023918433
547.5862427 0.09694482490160176


PRECURSORMZ: 611.197046388
COMPOUNDNAME: casmi2022challengebonus139
FORMULA: C28H34O15
SMILES: CC1C(C(C(C(O1)OCC2C(C(C(C(O2)OC3=CC(=C4C(=O)CC(OC4=C3)C5=CC(=C(C=C5)OC)O)O)O)O)O)O)O)O
INCHIKEY: QUQPHWDTPGMPEX-SGHBVPQBSA-N
PRECURSORTYPE: [M+H]+
PRECURSORINTENSITY: 477168.765625
IONMODE: positive
CHARGE: 1
PARENTMASS: 610.1897703879999
NUM PEAKS: 14
50.09144211 0.09291109196811073
51.929142   0.08976142032266063
54.92404175 0.09213980118510587
57.03378296 0.08949606947708459
59.29717636 0.09152316323293978
69.02427673 0.08760341726618613
71.04933929 0.21991792938394775
85.02805328 0.1789744416891355
153.0180969 1.0
172.1204529 0.10436290746961456
177.0537567 0.18365473753262104
290.3474426 0.1053286428973054
350.4206543 0.10691681023918433
547.5862427 0.09694482490160176


