PRECURSORMZ: 1119.5592743920006
COMPOUNDNAME: casmi2022challengebonus102
FORMULA: C53H86O22
SMILES: CC1C(C(C(C(O1)OC2C(C(COC2OC3CCC4(C(C3(C)C)CCC5(C4CC=C6C5(CCC7(C6CC(CC7)(C)CO)C(=O)OC8C(C(C(C(O8)COC9C(C(C(C(O9)CO)O)O)O)O)O)O)C)C)C)O)O)O)O)O
INCHIKEY: KDGYEAWBQIDEFT-LUFHAGIYSA-N
PRECURSORTYPE: [M+FA-H]-
PRECURSORINTENSITY: 19643363.97461
IONMODE: negative
CHARGE: -1
PARENTMASS: 1074.5610733920005
NUM PEAKS: 63
81.0333252  0.002188504023478006
83.01237488 0.016828204261334082
85.02810669 0.01584086854124196
87.00732422 0.007163729395730476
87.04394531 0.0015293025592445653
87.29977417 0.0012815883665395936
89.02302551 0.021365707868066776
95.01229858 0.0019971532111806123
97.02807617 0.027161756724761933
99.00721741 0.0038376687574341057
99.04344177 0.0014915666403879314
101.0031281 0.0016784828593706092
101.0229492 0.2040182414771671
101.0292969 0.0023601358484988694
101.0389252 0.0015244513235826423
103.0385818 0.012325719940324754
113.0228577 0.022421227310532976
114.3826981 0.001076907757134741
115.0323944 0.0009783149352212074
115.0387497 0.016558267090264575
119.0337296 0.01304224107660206
125.0229874 0.0469570178663299
127.0387878 0.0016396746288772082
131.0336914 0.02850734161324623
139.0386963 0.0019001792452008686
141.018219  0.0018088713209561407
143.020874  0.0015984860577717382
143.0337067 0.03866357138788957
145.0497894 0.008252837639603501
150.8420715 0.010929884233882905
150.8578033 0.00634093908728599
161.044342  0.04051767910928647
163.0600433 0.026248197222027404
167.0327606 0.0014708993596843302
179.0550232 0.006417182798156177
195.0814819 0.0009591300812273952
202.9794312 0.0011732617239993994
203.0547485 0.002353181451544576
205.0707397 0.030654756721467037
221.065567  0.03743030415641523
244.2412872 0.0011970735879965112
245.0646515 0.009289710774163696
247.0827026 0.009895747773945763
263.0765076 0.0066586125128795075
304.3000488 0.001188108790590158
323.0988159 0.011122200163426766
349.1140137 0.0054699252770888575
367.1242981 0.017881471702269572
391.1227417 0.002271811348228453
409.1330566 0.006371747821486384
469.1577454 0.002185824715321118
537.0165405 0.0011651309467549762
603.0946045 0.0060243173802388235
603.1583252 0.005043104794942243
603.3898315 1.0
603.5653076 0.0043267443583169495
603.6207886 0.009012135037484131
603.7357178 0.0017576039030260781
604.3924561 0.0014770916284262783
617.4108887 0.0011487875715050938
626.0462036 0.0012561802622347764
693.8865967 0.0010323178326396012
749.442688  0.007774872746468697


