PRECURSORMZ: 400.2693688079999
COMPOUNDNAME: casmi2022challengebonus220
FORMULA: C21H34O6
SMILES: CC1(C2CCC3CC2(CCC1C(C)(C)C(=O)OC)CC3(CO)O)CC(=O)O
INCHIKEY: PIJXGSFXLAPZBU-UHFFFAOYSA-N
PRECURSORTYPE: [M+NH4]+
PRECURSORINTENSITY: 20806064.4668
IONMODE: positive
CHARGE: 1
PARENTMASS: 382.2355458079999
NUM PEAKS: 128
50.90853882 0.014038595654398583
55.05448532 0.22064736463655313
55.61828613 0.014941937278169453
57.03382492 0.02409235038899783
57.07011414 0.16040207693550365
65.34667206 0.015031615207868582
67.0542984  0.23376944674434258
69.0334549  0.027437789196163624
69.06991577 0.286362016095455
71.08570862 0.036044461064504055
72.89687347 0.012518338590325527
73.06472778 0.0603342403849204
77.4678421  0.012903731792521016
79.05430603 0.2343173814473463
81.06483459 0.02258577575599949
81.06987762 0.40701411738409227
83.04905701 0.02348778438604157
83.08552551 0.3610421645877691
91.05426025 0.27260647159784995
93.06996918 0.3339298662595912
95.04847717 0.020357677412903143
95.08555603 0.394482949910855
97.06475067 0.02467192849937244
97.10150909 0.029543641074829336
97.80989075 0.013902701873216109
105.0698395 0.600342992386869
107.0855255 0.3652750936029007
109.0648804 0.05783775246550088
109.1011505 0.2195663837035658
111.0801239 0.028532572759254835
111.3293686 0.01297046386258592
113.0597992 0.01614576702128446
115.0541229 0.014840663518521736
117.0611572 0.02772113477305111
117.069725  0.46429208271197187
118.7481003 0.01666966597008493
119.085556  0.48601512115673196
121.0647964 0.13649255062059218
121.101181  0.2546629012011303
123.0803146 0.03464197068755703
123.1170502 0.15442252907314696
129.0699158 0.31978730789872173
131.0854797 0.6513252728998761
131.0943298 0.01748083114500899
133.0648956 0.03013407491326438
133.0900116 0.0273292643287834
133.10112   0.5301746778752451
135.0800323 0.0672036716314214
135.1161957 0.13449293577609742
137.0958099 0.02948807671008078
137.1322174 0.06065715170070444
141.0704346 0.025597242235585967
142.0779572 0.030224699579138366
143.0724487 0.01691637245185635
143.0854797 0.810082724591427
145.0656891 0.016168038956024592
145.0912323 0.019384444780533673
145.1011047 0.673150175295023
145.1141663 0.02441101287167917
147.0799408 0.10403499875922188
147.1166382 0.48666338558431055
149.0956421 0.022385255413591546
149.1322937 0.05898089115268589
151.1114807 0.01889075225295686
155.0851746 0.061913877120008357
156.223587  0.016550028769975297
157.1011505 1.0
159.0812836 0.017936242307586534
159.1165619 0.3274365040119357
159.1301575 0.024922212590453414
161.0961609 0.14236250938146672
161.1323242 0.2497255680589917
163.0755157 0.027939664711587864
163.1109314 0.02904311881139794
165.0902863 0.028013453410057003
167.0856018 0.02057901514674143
169.1011047 0.0985821981574942
171.0810089 0.030686723038877213
171.1165466 0.6382959358228589
173.0957794 0.03492947866229021
173.1326904 0.2012605631447152
175.1113281 0.20619582184068547
175.1476135 0.19404425640742398
177.0912323 0.01726588286743461
179.1045837 0.018172415842960553
181.1013336 0.035350491293679086
183.1166229 0.10192765317127069
185.0951538 0.02911971665571992
185.1322937 0.9062613095131594
186.1400299 0.022972319627553934
187.1121826 0.028796635170523364
187.1478729 0.2545493036646042
189.0907745 0.022453559524893328
189.1272736 0.22967470609635646
189.1637878 0.1177052532669718
195.1164398 0.05580736666951039
197.1319885 0.03230249781470061
198.1394348 0.018648416153868034
199.1113434 0.08977552590883864
199.1477966 0.6087680961934517
201.1283417 0.03128224035086519
201.1632538 0.13381944305787885
203.1063843 0.026286169049384456
203.1429138 0.13864463725845344
203.1794128 0.08383831511580639
209.131897  0.07438018033506281
211.1471405 0.022966004451588605
213.1274567 0.05558233247788359
213.1633453 0.14556282879431545
215.1802368 0.02590158347662138
217.1219177 0.07782260490279794
217.1568146 0.030133540095111627
217.1953125 0.08224569688555618
221.0820465 0.01827112760756803
227.1421967 0.09250520534726532
227.1793976 0.534326465792858
229.1586304 0.01994260315378037
231.1376038 0.08673377737717917
231.1757812 0.04271073164160547
231.2100372 0.08364220432205673
241.1658478 0.026070188950929513
241.1941528 0.25798026475637836
245.153244  0.027668547022465302
245.1898956 0.5504148330507332
251.1792145 0.05709892549738953
259.2055664 0.2309901210551705
269.1903687 0.12638373122507368
287.1992493 0.13566514912285935


