PRECURSORMZ: 598.2130357039999
COMPOUNDNAME: casmi2022challengebonus183
FORMULA: C27H32O14
SMILES: C1CC(C(C(C1O)O)(C(=O)OCC2=C(C=CC(=C2)O)OC3C(C(C(C(O3)COC(=O)C4=CC=CC=C4)O)O)O)O)O
INCHIKEY: JMCVYQUHLKARLD-UHFFFAOYSA-N
PRECURSORTYPE: [M+NH4]+
PRECURSORINTENSITY: 30062152.81641
IONMODE: positive
CHARGE: 1
PARENTMASS: 580.179212704
NUM PEAKS: 52
50.01556015 0.0030542603098475023
51.02329254 0.004973645918720417
53.03887558 0.09192140242682008
55.01818848 0.01677019853436902
57.03369904 0.014925297179660147
61.02867889 0.0033933118859348576
65.03874969 0.009154432347410793
67.05431366 0.09077439236117006
67.90950775 0.008448532422571606
69.03355408 0.08973068960408676
71.01286316 0.0025712624874687515
71.04921722 0.004967845607788239
73.02839661 0.01273269399750641
77.03847504 0.02488189149551582
78.78076935 0.0028940182406374244
79.05426025 0.0996705480995724
81.03350067 0.15910558876470532
81.03899384 0.003809650283931682
81.07043457 0.003210527242738221
85.02837372 0.09206893232160368
91.0544281  0.0022779556765501665
95.04914093 0.15275810443016083
95.05505371 0.003465681423666274
97.02838135 0.06591989212817834
99.04389954 0.010468900667861103
103.0393448 0.004180743982769226
103.054512  0.002332697840075062
105.0161209 0.0116308259270456
105.0334778 1.0
105.0445023 0.05446459903448384
105.0558929 0.004454577021907859
105.0696411 0.005803192328023476
107.0491409 0.004676164816735976
109.0284348 0.032531439330031636
115.0542297 0.0031876538179548284
119.0489273 0.0027697705021197446
123.0439377 0.3955138833089346
127.0389481 0.011609219437214624
129.070282  0.0045200002088339325
133.0649414 0.009078573906546985
135.0437012 0.004976605384781735
137.059967  0.027940436948500146
147.044342  0.004022033756537763
149.0599518 0.004469068514192936
157.0646667 0.0043365299882131315
161.0598755 0.01880623842014632
177.055481  0.002347487022280839
185.0605621 0.008231594351025148
189.0549164 0.01257741469024713
213.0542908 0.011480069384285772
221.1308746 0.0032537913848944716
409.8537292 0.0027889011062061757


PRECURSORMZ: 598.2130357039999
COMPOUNDNAME: casmi2022challengebonus183
FORMULA: C27H32O14
SMILES: C1CC(C(C(C1O)O)(C(=O)OCC2=C(C=CC(=C2)O)OC3C(C(C(C(O3)COC(=O)C4=CC=CC=C4)O)O)O)O)O
INCHIKEY: JMCVYQUHLKARLD-UHFFFAOYSA-N
PRECURSORTYPE: [M+NH4]+
PRECURSORINTENSITY: 30062152.81641
IONMODE: positive
CHARGE: 1
PARENTMASS: 580.179212704
NUM PEAKS: 52
50.01556015 0.0030542603098475023
51.02329254 0.004973645918720417
53.03887558 0.09192140242682008
55.01818848 0.01677019853436902
57.03369904 0.014925297179660147
61.02867889 0.0033933118859348576
65.03874969 0.009154432347410793
67.05431366 0.09077439236117006
67.90950775 0.008448532422571606
69.03355408 0.08973068960408676
71.01286316 0.0025712624874687515
71.04921722 0.004967845607788239
73.02839661 0.01273269399750641
77.03847504 0.02488189149551582
78.78076935 0.0028940182406374244
79.05426025 0.0996705480995724
81.03350067 0.15910558876470532
81.03899384 0.003809650283931682
81.07043457 0.003210527242738221
85.02837372 0.09206893232160368
91.0544281  0.0022779556765501665
95.04914093 0.15275810443016083
95.05505371 0.003465681423666274
97.02838135 0.06591989212817834
99.04389954 0.010468900667861103
103.0393448 0.004180743982769226
103.054512  0.002332697840075062
105.0161209 0.0116308259270456
105.0334778 1.0
105.0445023 0.05446459903448384
105.0558929 0.004454577021907859
105.0696411 0.005803192328023476
107.0491409 0.004676164816735976
109.0284348 0.032531439330031636
115.0542297 0.0031876538179548284
119.0489273 0.0027697705021197446
123.0439377 0.3955138833089346
127.0389481 0.011609219437214624
129.070282  0.0045200002088339325
133.0649414 0.009078573906546985
135.0437012 0.004976605384781735
137.059967  0.027940436948500146
147.044342  0.004022033756537763
149.0599518 0.004469068514192936
157.0646667 0.0043365299882131315
161.0598755 0.01880623842014632
177.055481  0.002347487022280839
185.0605621 0.008231594351025148
189.0549164 0.01257741469024713
213.0542908 0.011480069384285772
221.1308746 0.0032537913848944716
409.8537292 0.0027889011062061757


