PRECURSORMZ: 225.113233056
COMPOUNDNAME: casmi2022challengebonus176
FORMULA: C12H18O4
SMILES: C(CC=CCC=CCCC(=O)O)CC(=O)O
INCHIKEY: PNGRUNJOXYILEZ-UHFFFAOYSA-N
PRECURSORTYPE: [M-H]-
PRECURSORINTENSITY: 21803481.89453
IONMODE: negative
CHARGE: -1
PARENTMASS: 226.120509056
NUM PEAKS: 35
50.32714462 0.002942908203254144
59.01251602 0.26402220758635936
69.03316498 0.011355194345142018
71.0122757  0.01773928127403629
79.8986969  0.003049030305426722
81.03308868 0.012542995820561554
83.0435791  0.003311618739622187
83.04889679 0.09989601357848231
85.52114105 0.002863696163898828
87.96260071 0.003187972878608631
89.4310379  0.0029924661582435026
93.03305054 0.011466089172886908
95.04873657 0.005727267983513721
97.06443787 0.006945909544485584
97.24340057 0.002824522477132312
103.1153183 0.0027784527509886127
106.0409851 0.020419068187291296
107.0489655 0.0037803507367323826
107.0848923 0.015493203168439405
109.0645599 0.12743991597699922
121.0646744 0.015154831285783042
135.0802155 0.01660237850936332
140.7303162 0.0030949515280031805
145.10112   0.02856567452038139
153.0914764 0.0047990531090871405
161.0964661 0.02350933855847477
163.1118011 0.29633909235506256
179.1096802 0.0029026037606555482
181.1224365 1.0
181.1604309 0.010175787460456356
189.0912628 0.01345597615496161
207.1019135 0.007063114844640143
217.6812897 0.005476644645618428
217.7057343 0.005577363177713075
225.112915  0.011993171076801604


PRECURSORMZ: 225.113233056
COMPOUNDNAME: casmi2022challengebonus176
FORMULA: C12H18O4
SMILES: C(CC=CCC=CCCC(=O)O)CC(=O)O
INCHIKEY: PNGRUNJOXYILEZ-UHFFFAOYSA-N
PRECURSORTYPE: [M-H]-
PRECURSORINTENSITY: 21803481.89453
IONMODE: negative
CHARGE: -1
PARENTMASS: 226.120509056
NUM PEAKS: 35
50.32714462 0.002942908203254144
59.01251602 0.26402220758635936
69.03316498 0.011355194345142018
71.0122757  0.01773928127403629
79.8986969  0.003049030305426722
81.03308868 0.012542995820561554
83.0435791  0.003311618739622187
83.04889679 0.09989601357848231
85.52114105 0.002863696163898828
87.96260071 0.003187972878608631
89.4310379  0.0029924661582435026
93.03305054 0.011466089172886908
95.04873657 0.005727267983513721
97.06443787 0.006945909544485584
97.24340057 0.002824522477132312
103.1153183 0.0027784527509886127
106.0409851 0.020419068187291296
107.0489655 0.0037803507367323826
107.0848923 0.015493203168439405
109.0645599 0.12743991597699922
121.0646744 0.015154831285783042
135.0802155 0.01660237850936332
140.7303162 0.0030949515280031805
145.10112   0.02856567452038139
153.0914764 0.0047990531090871405
161.0964661 0.02350933855847477
163.1118011 0.29633909235506256
179.1096802 0.0029026037606555482
181.1224365 1.0
181.1604309 0.010175787460456356
189.0912628 0.01345597615496161
207.1019135 0.007063114844640143
217.6812897 0.005476644645618428
217.7057343 0.005577363177713075
225.112915  0.011993171076801604


