PRECURSORMZ: 491.2275586679998
COMPOUNDNAME: casmi2022challengebonus146
FORMULA: C26H34O9
SMILES: CC1=C2COC(=O)C2=C(C3=C1OC4(CC(C56C(C4C3)(CCC(O5)(OC6(C)CO)OC)C)O)C)OC
INCHIKEY: LCDHGZGHZZLGHK-UHFFFAOYSA-N
PRECURSORTYPE: [M+H]+
PRECURSORINTENSITY: 85692745.81445
IONMODE: positive
CHARGE: 1
PARENTMASS: 490.2202826679998
NUM PEAKS: 143
51.76411438 0.009609211689750576
51.76725006 0.006815252403347286
54.32923889 0.0006909229924682259
55.01810837 0.0031212183321259676
55.05441284 0.0015283383265572742
67.05429077 0.0026246394418181678
69.03365326 0.008108510173343386
69.07008362 0.001068623285229722
71.04960632 0.0010787111329591248
79.05388641 0.0006402056828469033
79.4008255  0.0006902569367136102
81.0697937  0.0014027451883275373
87.04389954 0.004557306354299657
93.07006836 0.0016460281387367182
95.04898071 0.004893810575239092
95.08558655 0.005166475202253478
97.06484222 0.006689464755414355
99.04386902 0.003181081553720645
105.069725  0.0034656448675472957
107.0852509 0.007545742722744936
109.0648499 0.009781243958757454
109.1014786 0.0008954936431132422
111.0799332 0.003015987365491014
113.0592041 0.0007122997670861452
115.0389862 0.014822396973093654
115.0753021 0.003377112522415308
119.0854492 0.009110842287719384
121.0644531 0.0052179002569744375
121.1010132 0.006507891042969461
121.616394  0.0007344375396166847
123.0802612 0.012752077564225847
125.059494  0.0011671015517369676
125.0957108 0.001209057343404138
127.0756836 0.0010184557272194597
131.085495  0.0017320701997525357
133.1009979 0.012086654757330104
135.0803986 0.015332729087033405
135.1167755 0.002662247247810881
137.095871  0.0016547920302448205
139.0749817 0.003217234797164444
141.0904388 0.0008362511363066976
143.0849609 0.0012547592118081605
145.1013336 0.005379261027421617
147.0803986 0.0012585599411462228
147.1166687 0.009732186615392267
149.0596771 0.06506294359313257
149.0960083 0.040505475710574765
151.0750427 0.00403174746574744
151.1116943 0.004746295292726129
153.0910492 0.001272784954271027
157.1007385 0.005643617485286322
159.0804749 0.0013161738856412029
159.1161804 0.004950337675466351
161.0596008 0.003923934559297627
161.0960388 0.00896726540067359
161.1317902 0.0009416363839484085
163.0741882 0.001346054860620939
163.1112518 0.0066399906403196715
165.0905914 0.0010748709661092758
169.0855255 0.000768207369732426
171.1173096 0.006691976097214288
173.0960693 0.003904698547761635
173.1328735 0.0007273192513203016
175.0749207 0.0032622524734272577
175.1118164 0.009724051776541301
177.0078583 0.0009367872132283316
177.0544739 0.20733156470472244
177.0915222 0.003918989776955611
177.127182  0.001170441689887993
179.0709686 0.0007819039932317206
179.1059418 0.0010975480222693522
181.1217194 0.00477171203874821
183.1003571 0.0009029383255079442
185.0961761 0.0014752635909806298
187.1113281 0.003974883929462841
189.0906067 0.009469957348749723
189.1268616 0.006443107383175846
191.0704346 0.0008828216645961032
191.1065674 0.010734189596953849
193.0487366 0.007710829607731643
193.1220398 0.01043641982894878
195.0448456 0.0009507942245518715
195.0652161 0.03872545144402134
195.0987091 0.0007718664161577741
199.1124878 0.0011824517511548394
201.0897522 0.0009014110348315843
201.1278687 0.0012522449487110583
203.1068573 0.0033175015061429193
205.04953   0.004766526249389722
205.1222076 0.0038957123942272302
207.0045471 0.004995788190593093
207.0650635 1.0
207.1003113 0.005803213305360342
207.1118774 0.009745769673464102
215.0693512 0.0010849453028392703
215.1064758 0.0011850081296194666
217.0506897 0.0009455746576948619
217.1212463 0.00929366095964129
219.0648804 0.008540126961288808
221.0439911 0.00405646529142175
221.0807648 0.008418786014530517
223.0602417 0.0011077490702640679
223.1327057 0.00915640283837284
229.1223602 0.0013129997745459697
231.0651855 0.0038697325681757533
233.0804901 0.007403674198804259
235.0962524 0.0008767767704283896
245.0806732 0.03557754730569463
247.0962982 0.011333967935156737
257.0799255 0.0009348183197965356
259.0968018 0.004776435776271078
261.111969  0.012921969496173304
271.0959473 0.00452954575418202
273.1116333 0.0015588052650608994
285.1113892 0.0025343255922957277
287.0917053 0.0008045921259768973
287.1252747 0.0008508956598770942
289.1075745 0.007627930984190781
295.0962524 0.0013335672889876165
297.1138916 0.0011039841268163301
299.1273193 0.001078933516706143
305.1166382 0.0010198662877297605
309.1130066 0.0015706585500463231
311.1274719 0.003014191011173284
313.1432495 0.0033989660162150534
315.1231995 0.0009677711604705772
319.1196594 0.0007925159095012363
323.1277466 0.0032214969697345512
325.1438904 0.0011273201789295296
327.1584473 0.002651425789329821
337.1448975 0.007752429366306298
339.1622009 0.001119655182039971
351.1601562 0.0031621885511606226
355.1552734 0.005732496977898603
357.1700745 0.0010427218473189565
379.1554871 0.0010457294444755356
381.1669312 0.0008915627334700698
397.1642456 0.00446116500380719
399.1815796 0.0009138745057632597
411.1822205 0.0013630459770029879
429.1899414 0.006236583358490247
431.204071  0.0011790273822687638
491.226593  0.006299069418060154


PRECURSORMZ: 491.2275586679998
COMPOUNDNAME: casmi2022challengebonus146
FORMULA: C26H34O9
SMILES: CC1=C2COC(=O)C2=C(C3=C1OC4(CC(C56C(C4C3)(CCC(O5)(OC6(C)CO)OC)C)O)C)OC
INCHIKEY: LCDHGZGHZZLGHK-UHFFFAOYSA-N
PRECURSORTYPE: [M+H]+
PRECURSORINTENSITY: 85692745.81445
IONMODE: positive
CHARGE: 1
PARENTMASS: 490.2202826679998
NUM PEAKS: 143
51.76411438 0.009609211689750576
51.76725006 0.006815252403347286
54.32923889 0.0006909229924682259
55.01810837 0.0031212183321259676
55.05441284 0.0015283383265572742
67.05429077 0.0026246394418181678
69.03365326 0.008108510173343386
69.07008362 0.001068623285229722
71.04960632 0.0010787111329591248
79.05388641 0.0006402056828469033
79.4008255  0.0006902569367136102
81.0697937  0.0014027451883275373
87.04389954 0.004557306354299657
93.07006836 0.0016460281387367182
95.04898071 0.004893810575239092
95.08558655 0.005166475202253478
97.06484222 0.006689464755414355
99.04386902 0.003181081553720645
105.069725  0.0034656448675472957
107.0852509 0.007545742722744936
109.0648499 0.009781243958757454
109.1014786 0.0008954936431132422
111.0799332 0.003015987365491014
113.0592041 0.0007122997670861452
115.0389862 0.014822396973093654
115.0753021 0.003377112522415308
119.0854492 0.009110842287719384
121.0644531 0.0052179002569744375
121.1010132 0.006507891042969461
121.616394  0.0007344375396166847
123.0802612 0.012752077564225847
125.059494  0.0011671015517369676
125.0957108 0.001209057343404138
127.0756836 0.0010184557272194597
131.085495  0.0017320701997525357
133.1009979 0.012086654757330104
135.0803986 0.015332729087033405
135.1167755 0.002662247247810881
137.095871  0.0016547920302448205
139.0749817 0.003217234797164444
141.0904388 0.0008362511363066976
143.0849609 0.0012547592118081605
145.1013336 0.005379261027421617
147.0803986 0.0012585599411462228
147.1166687 0.009732186615392267
149.0596771 0.06506294359313257
149.0960083 0.040505475710574765
151.0750427 0.00403174746574744
151.1116943 0.004746295292726129
153.0910492 0.001272784954271027
157.1007385 0.005643617485286322
159.0804749 0.0013161738856412029
159.1161804 0.004950337675466351
161.0596008 0.003923934559297627
161.0960388 0.00896726540067359
161.1317902 0.0009416363839484085
163.0741882 0.001346054860620939
163.1112518 0.0066399906403196715
165.0905914 0.0010748709661092758
169.0855255 0.000768207369732426
171.1173096 0.006691976097214288
173.0960693 0.003904698547761635
173.1328735 0.0007273192513203016
175.0749207 0.0032622524734272577
175.1118164 0.009724051776541301
177.0078583 0.0009367872132283316
177.0544739 0.20733156470472244
177.0915222 0.003918989776955611
177.127182  0.001170441689887993
179.0709686 0.0007819039932317206
179.1059418 0.0010975480222693522
181.1217194 0.00477171203874821
183.1003571 0.0009029383255079442
185.0961761 0.0014752635909806298
187.1113281 0.003974883929462841
189.0906067 0.009469957348749723
189.1268616 0.006443107383175846
191.0704346 0.0008828216645961032
191.1065674 0.010734189596953849
193.0487366 0.007710829607731643
193.1220398 0.01043641982894878
195.0448456 0.0009507942245518715
195.0652161 0.03872545144402134
195.0987091 0.0007718664161577741
199.1124878 0.0011824517511548394
201.0897522 0.0009014110348315843
201.1278687 0.0012522449487110583
203.1068573 0.0033175015061429193
205.04953   0.004766526249389722
205.1222076 0.0038957123942272302
207.0045471 0.004995788190593093
207.0650635 1.0
207.1003113 0.005803213305360342
207.1118774 0.009745769673464102
215.0693512 0.0010849453028392703
215.1064758 0.0011850081296194666
217.0506897 0.0009455746576948619
217.1212463 0.00929366095964129
219.0648804 0.008540126961288808
221.0439911 0.00405646529142175
221.0807648 0.008418786014530517
223.0602417 0.0011077490702640679
223.1327057 0.00915640283837284
229.1223602 0.0013129997745459697
231.0651855 0.0038697325681757533
233.0804901 0.007403674198804259
235.0962524 0.0008767767704283896
245.0806732 0.03557754730569463
247.0962982 0.011333967935156737
257.0799255 0.0009348183197965356
259.0968018 0.004776435776271078
261.111969  0.012921969496173304
271.0959473 0.00452954575418202
273.1116333 0.0015588052650608994
285.1113892 0.0025343255922957277
287.0917053 0.0008045921259768973
287.1252747 0.0008508956598770942
289.1075745 0.007627930984190781
295.0962524 0.0013335672889876165
297.1138916 0.0011039841268163301
299.1273193 0.001078933516706143
305.1166382 0.0010198662877297605
309.1130066 0.0015706585500463231
311.1274719 0.003014191011173284
313.1432495 0.0033989660162150534
315.1231995 0.0009677711604705772
319.1196594 0.0007925159095012363
323.1277466 0.0032214969697345512
325.1438904 0.0011273201789295296
327.1584473 0.002651425789329821
337.1448975 0.007752429366306298
339.1622009 0.001119655182039971
351.1601562 0.0031621885511606226
355.1552734 0.005732496977898603
357.1700745 0.0010427218473189565
379.1554871 0.0010457294444755356
381.1669312 0.0008915627334700698
397.1642456 0.00446116500380719
399.1815796 0.0009138745057632597
411.1822205 0.0013630459770029879
429.1899414 0.006236583358490247
431.204071  0.0011790273822687638
491.226593  0.006299069418060154


