PRECURSORMZ: 235.16925594399999
COMPOUNDNAME: casmi2022challengebonus108
FORMULA: C15H22O2
SMILES: CC1(CCCC(=C)C12CCC(=CC2)C(=O)O)C
INCHIKEY: TYVCBWCQQAMFRG-HNNXBMFYSA-N
PRECURSORTYPE: [M+H]+
PRECURSORINTENSITY: 3393068.292969
IONMODE: positive
CHARGE: 1
PARENTMASS: 234.161979944
NUM PEAKS: 47
57.07036591 0.009605783878062326
67.0542984  0.015027014619161413
69.06987    0.013443283564885364
79.05421448 0.03795312427854546
81.06991577 0.5090984599175601
83.08556366 0.03913016095781878
93.06972504 0.04052573687398734
95.07887268 0.009280378163184517
95.085495   0.22741932564201583
97.06454468 0.010484495007403645
97.10086823 0.019713985005944994
99.04412842 0.011693259289579993
103.8353119 0.008469275214803092
105.0695953 0.04437747606476196
107.0854721 0.2140373933821369
109.1011429 0.27747446444462165
111.0805969 0.01873750653900157
111.0900726 0.008071946938855495
112.0977402 0.009896578221478042
119.0856857 0.10351799432228398
121.1008148 0.02065517163862547
122.0201263 0.010842331333439391
123.1162338 0.010554937254443111
125.0597534 0.11979368892559417
129.090744  0.04015709000263396
133.1010742 0.1434541347740037
135.1166229 0.015757227039643797
139.0754547 0.09258025165121267
147.1170044 0.11626216897042403
147.1289825 0.012384938454353282
149.1322174 0.00974862572748852
151.0751953 0.00942504619440592
153.0912018 0.08538987501521614
161.0954437 0.010261662911058456
161.1319427 0.0705786757321583
163.1494293 0.00872532752560256
165.0910492 0.017006056643625596
171.9650421 0.008769671359750498
179.1065369 0.07166350560268475
189.1636505 1.0
191.1789246 0.01543533534125062
199.1473694 0.011212387295684075
207.1741028 0.05023298964332337
217.1218414 0.010806695168602718
217.1586151 0.26814172856309343
226.0360107 0.011768119420861003
235.1690826 0.7309791134976535


