PRECURSORMZ: 417.20201261599993
COMPOUNDNAME: casmi2022challengebonus145
FORMULA: C22H28N2O6
SMILES: CC1C=CC2CCCCC2C1C3=CC(=C(C(=O)O3)C=O)NC(CCC(=O)N)C(=O)O
INCHIKEY: IIIQNYBMLKYCLT-UHFFFAOYSA-N
PRECURSORTYPE: [M+H]+
PRECURSORINTENSITY: 12475389.16211
IONMODE: positive
CHARGE: 1
PARENTMASS: 416.19473661599994
NUM PEAKS: 135
53.46784592 0.0051936116909555834
55.01831818 0.0049554462368058385
55.05456543 0.011837867599185809
58.87008667 0.005082270572486688
65.47510529 0.005494378115498482
67.0542984  0.1215035461233064
69.06985474 0.031579017644268376
73.55542755 0.004641548177807631
79.05428314 0.14016001960303243
81.06993866 0.2480001551496286
83.0854187  0.03394724666359036
83.36489105 0.004839237933653315
84.03934479 0.009223162500457906
84.04446411 0.14182444573256944
85.02815247 0.029046806010939896
91.05407715 0.01184386464026075
93.06993866 0.29992574982060827
95.04893494 0.013005131904889682
95.08534241 0.0364592584463427
101.0706329 0.038730176479624144
102.0547256 0.030749611664173705
102.2463913 0.005236700152102047
105.0696793 0.020099753669180973
107.0488968 0.009285916908138798
107.0772781 0.008143916364499425
107.0855103 0.2690672890711555
109.0644073 0.01962255312258637
109.10112   0.021093611714043226
110.023262  0.021364902306527028
112.0390167 0.008601035385197532
117.0688171 0.009320247419021382
119.0853043 0.012052598994852148
121.0643311 0.00947986067778849
121.1010284 0.07154910593487349
122.0596619 0.007946864888530792
126.0547638 0.009707502931373686
128.0343475 0.03946524402050561
130.039093  0.010168589195798623
130.0498352 0.26200256304723724
130.06073   0.011589906208355484
131.0853882 0.026474198524416213
133.1009979 0.034793289286025424
135.0797577 0.009580402023779242
135.1166687 0.31604542682617115
135.125     0.005621489604974934
138.0183258 0.02516424427508645
138.0545197 0.011635942204608597
143.0859375 0.007139699619236954
147.1166687 0.01140360255744471
149.0961456 0.010951548410224336
149.1323853 1.0
149.1439514 0.015256161772116694
150.0550995 0.04332793105815433
150.3978271 0.005746570816108693
154.0487823 0.007348878412868553
155.0847473 0.006355525893364847
156.0282898 0.008496454646285012
157.1008911 0.007513836964983849
159.116684  0.06014428068907368
164.0701752 0.005554893493166182
166.050415  0.037131650462662966
168.0651245 0.0218807324940272
169.1008148 0.009159989627447053
174.0546417 0.007716212570536851
176.0342255 0.0736862766767319
176.0702362 0.0254602714595178
177.1273193 0.10994532976530233
178.0491791 0.024770961899991905
183.1156769 0.0083019558088298
185.0925446 0.005891290557082695
192.0654602 0.09829805628914719
194.0440521 0.03634117618810292
195.0765839 0.007552749430733184
196.0603485 0.08446076422889864
197.1310883 0.03851025803784358
199.1475677 0.024026926695186697
204.0645142 0.00848801992441381
205.1077423 0.00586360739201786
206.0809479 0.007072974600866757
208.0589752 0.007663333463650813
213.0871277 0.005749174921047617
215.1423645 0.025464088632919366
216.2848816 0.011005517931941744
216.309494  0.026310008120728576
220.0579224 0.01621171051849836
222.0396271 0.2522544872566437
222.0774536 0.019734984655886436
224.0545044 0.052174234264241365
225.1267242 0.007717863344114746
232.0576324 0.005778133202882409
232.0980988 0.006693899364225242
234.0758209 0.02572866646431543
237.9932709 0.005700051901244799
238.0707397 0.2775212815113051
239.0644836 0.028804908038443863
243.1369781 0.02703308157946016
248.0891571 0.00801084198456697
250.0706482 0.15838278984274784
255.0965729 0.020823619807066512
258.1130676 0.006594849101594477
260.1640015 0.10185647766630332
262.0709839 0.030770323293038554
262.102478  0.006685907157415712
264.0849304 0.02379768080549747
267.0965881 0.011879472672886401
270.1115112 0.009335400673915906
276.0865784 0.009729352593538548
278.0991211 0.006882048110545342
280.1681213 0.009817676675870052
286.1073914 0.00812513063814212
288.1234436 0.01569623722901542
288.1583557 0.1098662080722751
290.1026306 0.009883375732689503
298.1800232 0.024363315101199733
299.113739  0.00771858146910085
300.1589966 0.011204880587118307
304.1177368 0.07580581607935041
304.2662659 0.007934107948894254
308.1627808 0.011662212207443772
316.1173096 0.01106023395732841
316.5204468 0.00560812035917139
317.1249084 0.03947183172298896
318.1313171 0.010651321180664145
326.1747131 0.09892334161516304
328.1921387 0.007067979952605433
334.1511841 0.025760879636826734
343.2010193 0.03023848560417697
344.184967  0.022183968826006772
353.1852112 0.022622851416217508
354.1679382 0.03676191181282798
356.1839905 0.036367476974594554
372.125946  0.009760828882273238
372.1802979 0.5032538632719271
389.206543  0.5038981959853802
417.1997681 0.006322014035346459


