PRECURSORMZ: 343.19038531199993
COMPOUNDNAME: casmi2022challengebonus60
FORMULA: C21H26O4
SMILES: CCC(C)C=CC=CC(=O)OC1C=CC2=CC(=O)C(=CC2(C1C)C)O
INCHIKEY: XIQRWECUXAGJNR-UHFFFAOYSA-N
PRECURSORTYPE: [M+H]+
PRECURSORINTENSITY: 38829500.39844
IONMODE: positive
CHARGE: 1
PARENTMASS: 342.18310931199994
NUM PEAKS: 57
53.03888321 0.009580591115536403
55.01792145 0.0012786132109637318
55.05460739 0.007193802206385642
62.27688599 0.0011193849530937235
66.33528137 0.0013533410031525122
67.05007172 0.001677320438129376
67.05436707 0.2051472669695438
67.39674377 0.0011793533544472662
69.03359985 0.04342884353755334
69.06993103 0.006085044221281339
69.07860565 0.0012172532537933376
70.63004303 0.0011429016901994805
79.05445862 0.005485987652688687
81.03353882 0.06160498435270438
81.06993103 0.046520256560727474
91.05463409 0.00229705368805622
93.06962585 0.008981146797093003
95.04920197 0.04469230629712538
95.05614471 0.0015294917345292471
95.08561707 0.03131560812228724
105.033638  0.0027202217331630117
105.0698624 0.004880742977871391
107.0853806 0.013253430802204013
109.0749512 0.0018517313274503976
109.0833664 0.01069733399305898
109.087738  0.003808923992892863
109.1011658 1.0
109.1190338 0.00541274742678181
109.1239166 0.007955612537126518
109.5217667 0.001373318331016157
111.0445023 0.001942053735306625
119.049263  0.007327584380300308
119.0854721 0.010535764139266525
128.0617523 0.0090629058660323
133.1014404 0.00575786280418658
137.0601044 0.0027950675189026995
137.0960693 0.1265429816683736
139.0391541 0.006557752077237397
143.0720825 0.001887869269226714
143.0855103 0.144554059702798
143.0985565 0.002761379896623771
145.1010895 0.006861312006498263
146.0724792 0.0013623539359025477
147.0806274 0.0021444132048020976
161.0960236 0.08485066842141484
163.0752258 0.0024618489637628907
171.0803223 0.18867077147557845
174.0672455 0.03563555463569143
189.0909119 0.17257858481729227
199.1105652 0.0013566351553169242
216.5813293 0.005366019332063378
227.105896  0.001972744639220588
237.0855865 0.0012500116271984068
256.0456238 0.0014438984711129463
259.0966797 0.005022492033965362
273.1126099 0.0016193734212436406
321.5690613 0.0011856922964232903


PRECURSORMZ: 343.19038531199993
COMPOUNDNAME: casmi2022challengebonus60
FORMULA: C21H26O4
SMILES: CCC(C)C=CC=CC(=O)OC1C=CC2=CC(=O)C(=CC2(C1C)C)O
INCHIKEY: XIQRWECUXAGJNR-UHFFFAOYSA-N
PRECURSORTYPE: [M+H]+
PRECURSORINTENSITY: 38829500.39844
IONMODE: positive
CHARGE: 1
PARENTMASS: 342.18310931199994
NUM PEAKS: 57
53.03888321 0.009580591115536403
55.01792145 0.0012786132109637318
55.05460739 0.007193802206385642
62.27688599 0.0011193849530937235
66.33528137 0.0013533410031525122
67.05007172 0.001677320438129376
67.05436707 0.2051472669695438
67.39674377 0.0011793533544472662
69.03359985 0.04342884353755334
69.06993103 0.006085044221281339
69.07860565 0.0012172532537933376
70.63004303 0.0011429016901994805
79.05445862 0.005485987652688687
81.03353882 0.06160498435270438
81.06993103 0.046520256560727474
91.05463409 0.00229705368805622
93.06962585 0.008981146797093003
95.04920197 0.04469230629712538
95.05614471 0.0015294917345292471
95.08561707 0.03131560812228724
105.033638  0.0027202217331630117
105.0698624 0.004880742977871391
107.0853806 0.013253430802204013
109.0749512 0.0018517313274503976
109.0833664 0.01069733399305898
109.087738  0.003808923992892863
109.1011658 1.0
109.1190338 0.00541274742678181
109.1239166 0.007955612537126518
109.5217667 0.001373318331016157
111.0445023 0.001942053735306625
119.049263  0.007327584380300308
119.0854721 0.010535764139266525
128.0617523 0.0090629058660323
133.1014404 0.00575786280418658
137.0601044 0.0027950675189026995
137.0960693 0.1265429816683736
139.0391541 0.006557752077237397
143.0720825 0.001887869269226714
143.0855103 0.144554059702798
143.0985565 0.002761379896623771
145.1010895 0.006861312006498263
146.0724792 0.0013623539359025477
147.0806274 0.0021444132048020976
161.0960236 0.08485066842141484
163.0752258 0.0024618489637628907
171.0803223 0.18867077147557845
174.0672455 0.03563555463569143
189.0909119 0.17257858481729227
199.1105652 0.0013566351553169242
216.5813293 0.005366019332063378
227.105896  0.001972744639220588
237.0855865 0.0012500116271984068
256.0456238 0.0014438984711129463
259.0966797 0.005022492033965362
273.1126099 0.0016193734212436406
321.5690613 0.0011856922964232903


