PRECURSORMZ: 543.1989379839999
COMPOUNDNAME: casmi2022challengebonus110
FORMULA: C30H32O8
SMILES: CC1C(C(OC1C2=CC3=C(C=C2)OCO3)C4=CC(=C(C=C4)OC(C)C(C5=CC6=C(C=C5)OCO6)O)OC)C
INCHIKEY: XYQJFJKRYAIFAO-KVGJNFRLSA-N
PRECURSORTYPE: [M+Na]+
PRECURSORINTENSITY: 12136991.37891
IONMODE: positive
CHARGE: 1
PARENTMASS: 520.2097199839999
NUM PEAKS: 14
52.46783066 0.02589622426871763
71.20140839 0.02397331592252168
98.29282379 0.026800973950472252
99.59155273 0.02691406363857036
159.0413666 0.05027679425143855
173.0573273 0.035349863803284025
174.0287323 1.0
190.0984344 0.029476400238945728
199.0729218 0.10645034077098643
220.0092316 0.049809332122449444
349.103302  0.03894133636656262
364.1276245 0.17667960636452232
437.3744507 0.02713116663292565
496.5469666 0.026264234796310192


PRECURSORMZ: 543.1989379839999
COMPOUNDNAME: casmi2022challengebonus110
FORMULA: C30H32O8
SMILES: CC1C(C(OC1C2=CC3=C(C=C2)OCO3)C4=CC(=C(C=C4)OC(C)C(C5=CC6=C(C=C5)OCO6)O)OC)C
INCHIKEY: XYQJFJKRYAIFAO-KVGJNFRLSA-N
PRECURSORTYPE: [M+Na]+
PRECURSORINTENSITY: 12136991.37891
IONMODE: positive
CHARGE: 1
PARENTMASS: 520.2097199839999
NUM PEAKS: 14
52.46783066 0.02589622426871763
71.20140839 0.02397331592252168
98.29282379 0.026800973950472252
99.59155273 0.02691406363857036
159.0413666 0.05027679425143855
173.0573273 0.035349863803284025
174.0287323 1.0
190.0984344 0.029476400238945728
199.0729218 0.10645034077098643
220.0092316 0.049809332122449444
349.103302  0.03894133636656262
364.1276245 0.17667960636452232
437.3744507 0.02713116663292565
496.5469666 0.026264234796310192


