PRECURSORMZ: 211.14410381599998
COMPOUNDNAME: casmi2022challengebonus20
FORMULA: C11H18N2O2
SMILES: CC(C)CC1C(=O)N2CCCC2C(=O)N1
INCHIKEY: SZJNCZMRZAUNQT-UHFFFAOYSA-N
PRECURSORTYPE: [M+H]+
PRECURSORINTENSITY: 120833120.2773
IONMODE: positive
CHARGE: 1
PARENTMASS: 210.136827816
NUM PEAKS: 46
56.04959869 0.0010782276411375276
57.07025528 0.0008493495907447767
58.02565002 0.0008016191970337419
58.02897263 0.02422714251035492
60.42359161 0.0007141146648176707
62.11971664 0.0006570927774540019
68.04953766 0.004641979335897116
69.06990814 0.0032986175838927937
70.05365753 0.008715499238157587
70.05556488 0.00486859655521091
70.06516266 1.0
70.06879425 0.017959931098716037
70.07223511 0.011797068056416579
70.07411957 0.011523144925634343
70.07891083 0.004289548242416334
72.03279114 0.0009612712750467909
72.04441071 0.18688311767233778
72.0538559  0.0010916452256914005
72.08072662 0.001192308306443288
82.06513977 0.001638076091998076
86.09637451 0.02098896580857496
96.08063507 0.004252869704622438
97.0643158  0.0007362971300171905
98.06002808 0.021440167736725264
110.0599594 0.010449625885651043
112.0270615 0.0010434967654905426
114.0913162 0.14588493822687398
114.0986786 0.0017448903559143468
122.0467911 0.0007604231673212309
124.0752335 0.0012451304821426913
125.0707703 0.0007502361548773805
126.0788345 0.0010228833528276408
126.3481064 0.0006826397837010563
127.0864716 0.00984466338505874
137.0708008 0.0010825046225242073
138.127594  0.08258491438696322
138.1452179 0.0009248340497539266
151.0621948 0.000877936500949244
152.0698395 0.001253256273615616
153.0657501 0.002612152888784558
154.0734253 0.036322188920986584
155.1544189 0.006762255386337538
166.122406  0.01880590199365873
183.148941  0.01360611529844768
194.1174316 0.011199821781679796
211.1438751 0.019107511663941187


PRECURSORMZ: 211.14410381599998
COMPOUNDNAME: casmi2022challengebonus20
FORMULA: C11H18N2O2
SMILES: CC(C)CC1C(=O)N2CCCC2C(=O)N1
INCHIKEY: SZJNCZMRZAUNQT-UHFFFAOYSA-N
PRECURSORTYPE: [M+H]+
PRECURSORINTENSITY: 120833120.2773
IONMODE: positive
CHARGE: 1
PARENTMASS: 210.136827816
NUM PEAKS: 46
56.04959869 0.0010782276411375276
57.07025528 0.0008493495907447767
58.02565002 0.0008016191970337419
58.02897263 0.02422714251035492
60.42359161 0.0007141146648176707
62.11971664 0.0006570927774540019
68.04953766 0.004641979335897116
69.06990814 0.0032986175838927937
70.05365753 0.008715499238157587
70.05556488 0.00486859655521091
70.06516266 1.0
70.06879425 0.017959931098716037
70.07223511 0.011797068056416579
70.07411957 0.011523144925634343
70.07891083 0.004289548242416334
72.03279114 0.0009612712750467909
72.04441071 0.18688311767233778
72.0538559  0.0010916452256914005
72.08072662 0.001192308306443288
82.06513977 0.001638076091998076
86.09637451 0.02098896580857496
96.08063507 0.004252869704622438
97.0643158  0.0007362971300171905
98.06002808 0.021440167736725264
110.0599594 0.010449625885651043
112.0270615 0.0010434967654905426
114.0913162 0.14588493822687398
114.0986786 0.0017448903559143468
122.0467911 0.0007604231673212309
124.0752335 0.0012451304821426913
125.0707703 0.0007502361548773805
126.0788345 0.0010228833528276408
126.3481064 0.0006826397837010563
127.0864716 0.00984466338505874
137.0708008 0.0010825046225242073
138.127594  0.08258491438696322
138.1452179 0.0009248340497539266
151.0621948 0.000877936500949244
152.0698395 0.001253256273615616
153.0657501 0.002612152888784558
154.0734253 0.036322188920986584
155.1544189 0.006762255386337538
166.122406  0.01880590199365873
183.148941  0.01360611529844768
194.1174316 0.011199821781679796
211.1438751 0.019107511663941187


