PRECURSORMZ: 411.325756584
COMPOUNDNAME: casmi2022challengebonus240
FORMULA: C28H42O2
SMILES: CC(C)C(C)C=CC(C)C1CCC2C1(CCC3=C2C(=O)C=C4C3(CCC(C4)O)C)C
INCHIKEY: UOHNARRKDSHFLD-VILMZZEPSA-N
PRECURSORTYPE: [M+H]+
PRECURSORINTENSITY: 65904792.32422
IONMODE: positive
CHARGE: 1
PARENTMASS: 410.318480584
NUM PEAKS: 84
55.05445862 0.02074311896765143
57.07011795 0.057248785965578926
57.07331467 0.0017109209283538318
66.19301605 0.0014011721765641164
67.05432129 0.014281324575213658
69.05866241 0.001683956578841394
69.06996155 0.34531620294640164
69.07922363 0.00294662864814156
71.08560944 0.005578749562504052
79.05450439 0.0017874439628073225
80.98906708 0.0013824969821421742
81.06990814 0.045631079936637835
83.07971954 0.0014589956403382846
83.08551788 0.08966559708746669
93.06994629 0.014535938967766358
95.0855484  0.03792773927234794
97.10109711 0.015421048940195808
105.0703735 0.002607099650690126
107.0855103 0.03370994667353132
109.1012039 0.04426554935573839
111.1169205 0.006127093296897635
119.0858231 0.00227724592299344
121.1006699 0.011427945809044713
122.1959    0.0014072910555883924
123.1168594 0.03125545747575298
125.1323242 0.012143462968762654
128.5101166 0.0016556524120168487
133.1012878 0.0021070617668295195
135.1166992 0.021968584625858135
137.1324615 0.012500669487771034
145.0652466 0.002137805137710885
145.1002197 0.012350455624307841
147.0804901 0.008453420200334984
147.1167908 0.006899566721880795
149.1325989 0.017314714461277053
151.147995  0.001816570784476252
155.7614899 0.0016753929716444263
158.0728149 0.002690936614570155
161.095993  0.008847043795656484
161.1318359 0.00647411790580903
163.1474915 0.012345452704375929
164.2825165 0.0013692241976831616
171.0802612 0.011689360300562635
173.0515442 0.004137597868674177
173.0959778 0.6013126135491664
173.1317902 0.0072323191197806
175.1116028 0.2661961269419747
175.1480408 0.0032098410201678224
185.0951538 0.002328710866335358
187.1115875 0.041082168675272146
189.0904846 0.02469222698771312
189.1269836 0.02044308126084312
191.0535278 0.007213848580699394
191.1064453 1.0
191.1481171 0.011431416006030575
191.1679077 0.0018332700991003522
199.1113434 0.016153052166127963
201.127243  0.030105347071439383
203.10672   0.0018532993157038104
205.1225739 0.0076084556440164835
205.1962738 0.0019129045260605718
211.1107635 0.0020061074092060103
213.1273956 0.07361686969112471
214.1342316 0.003122119112188956
215.1430054 0.08842343071168582
215.8771515 0.002795812743731709
215.9013824 0.0057865033184595184
217.1222076 0.00903148192448115
225.1273346 0.008149577692950305
227.1434937 0.018486751572157067
229.1593018 0.012717273754211769
231.1376953 0.02651859860597494
239.1430359 0.007810148655691003
241.1584473 0.02231989033689298
253.1578064 0.00613169848048611
267.1741943 0.021128916206035138
269.1893005 0.01669107650131819
281.1903992 0.0019577315865385394
285.1867065 0.0022695033923220338
295.2056274 0.005776816649735491
309.2225952 0.005105090822610006
323.2363281 0.022927186734494325
393.3146057 0.14571728504515388
411.3260803 0.021157826798025293


