PRECURSORMZ: 317.21221882
COMPOUNDNAME: casmi2022challengebonus141
FORMULA: C20H30O3
SMILES: CC12CCCC(C1CCC34C2CCC(C3)(C(=C)C4)O)(C)C(=O)O
INCHIKEY: QFVOYBUQQBFCRH-VQSWZGCSSA-N
PRECURSORTYPE: [M-H]-
PRECURSORINTENSITY: 677183.1445313
IONMODE: negative
CHARGE: -1
PARENTMASS: 318.21949481999997
NUM PEAKS: 13
50.66270447 0.004319566927712147
55.3074913  0.004938280233550134
79.30106354 0.010084212240315497
79.30568695 0.005623072927869807
92.91806793 0.006140846599435366
112.9760284 0.008114632359859358
112.9841919 0.15628994125766196
136.9082947 0.034091472112832935
172.4302979 0.0044059015608867965
192.1048889 0.004392262273784444
217.0555115 0.01068579414616746
279.9267578 0.004274190249557473
317.2115173 1.0


PRECURSORMZ: 317.21221882
COMPOUNDNAME: casmi2022challengebonus141
FORMULA: C20H30O3
SMILES: CC12CCCC(C1CCC34C2CCC(C3)(C(=C)C4)O)(C)C(=O)O
INCHIKEY: QFVOYBUQQBFCRH-VQSWZGCSSA-N
PRECURSORTYPE: [M-H]-
PRECURSORINTENSITY: 677183.1445313
IONMODE: negative
CHARGE: -1
PARENTMASS: 318.21949481999997
NUM PEAKS: 13
50.66270447 0.004319566927712147
55.3074913  0.004938280233550134
79.30106354 0.010084212240315497
79.30568695 0.005623072927869807
92.91806793 0.006140846599435366
112.9760284 0.008114632359859358
112.9841919 0.15628994125766196
136.9082947 0.034091472112832935
172.4302979 0.0044059015608867965
192.1048889 0.004392262273784444
217.0555115 0.01068579414616746
279.9267578 0.004274190249557473
317.2115173 1.0


