PRECURSORMZ: 275.164170564
COMPOUNDNAME: casmi2022challengebonus69
FORMULA: C17H22O3
SMILES: CC=CC=CCCCCC=CC1=CC(=C(C(=O)O1)C)O
INCHIKEY: WFNXTYLZRVHCCW-UHFFFAOYSA-N
PRECURSORTYPE: [M+H]+
PRECURSORINTENSITY: 416154495.0312
IONMODE: positive
CHARGE: 1
PARENTMASS: 274.156894564
NUM PEAKS: 123
50.21064758 0.0029520780159717364
51.89795685 0.003331402969814966
53.03882599 0.018461611673918132
55.01815414 0.01828586050719007
55.05449677 0.13009913587359506
57.03353882 0.005873152885275267
57.07008743 0.026176542287195414
59.04924011 0.006833214887516245
63.08529663 0.0032569641373705444
65.03860474 0.0069141565528176435
67.05432892 0.19201383757295162
68.99718475 0.025308865682777636
69.03356934 0.48933055186192215
69.03704834 0.006465781462153453
69.06998444 0.13609599846314546
71.01255035 0.004742058415177588
71.0490036  0.00726591581410076
77.03863525 0.00425018366788595
79.05422211 0.2245170040935329
81.03342438 0.05154288878251938
81.06987762 0.2603789149868517
81.07537079 0.006548546688373266
83.01274109 0.29119011776869735
83.01837921 0.00805597044873786
83.04904175 0.022031582053105837
83.08530426 0.014256605526700541
85.02845764 0.025667160937318165
85.06456757 0.004046246421893573
91.05422211 0.07284223070638292
93.03295898 0.004450135138188235
93.0699234  0.3041064603303101
93.07662964 0.008612799892843968
95.04920959 0.07960479670800841
95.08545685 0.12382465754486821
97.0283432  0.036046113523364
97.06500244 0.02749662910690985
101.0232315 0.00560125796793768
101.220871  0.0033304209519721597
105.0452271 0.003901554800625009
105.0699158 0.05935252967712753
107.0490646 0.05408487421515442
107.0854645 0.15657392332451472
109.0283813 0.27427788324491004
109.0647659 0.15144298688800795
109.0731201 0.006376208692940382
109.1011124 0.05065413991859992
111.0440216 0.028805068531800596
111.0800552 0.004998740802986438
117.0696411 0.034178597058091995
119.048996  0.01520656274550185
119.0854568 0.036096454666701694
120.056572  0.004867915973421079
121.0648956 0.038705951541356406
121.1011429 0.05001921068162025
123.0440903 0.047849386250806876
123.0804138 0.031240268075236086
125.0001373 0.005301428415946951
125.0232468 1.0
125.0589752 0.02561651273389456
127.039032  0.056065223773358874
129.0697784 0.0037411542882432435
131.0856934 0.04733269812419124
133.0647583 0.0166823812498801
133.1011963 0.024383399116883496
135.0439453 0.0072938937922694316
135.0805817 0.03888948156359441
135.1167145 0.1603658772573804
137.0474701 0.006665926150537013
137.0596466 0.2574559536302005
137.0957947 0.00798123003942334
139.0390778 0.0038431253917418267
139.0758209 0.005861538911957526
140.0464172 0.004672022605036607
141.0545044 0.0852319171772303
145.0645447 0.004223730023715232
145.1011963 0.030889118756436563
147.079834  0.005416272021346717
147.1168671 0.020725943768182552
149.0598602 0.021668808316767964
149.0959625 0.026240565359531516
149.1324921 0.05488331399230784
151.0758514 0.025546989734985506
151.1115265 0.0041029050131724185
153.0545197 0.20569588354663942
153.0686035 0.007753724104098098
155.0705719 0.01741659533681759
155.0855865 0.00414681669430291
155.5065308 0.0041158292139656175
157.100647  0.006982679517603341
159.0797424 0.00832118106488538
159.1165771 0.024456686212900206
161.0954437 0.006985409114659629
163.0751801 0.02114660564167052
163.1487579 0.005967944631526894
165.0545807 0.31557428140252947
165.0899506 0.013690850451661574
166.0623016 0.09830042785543487
166.0781708 0.003762931010425037
167.0698853 0.02939943450477717
169.0854034 0.0059664521524018
169.1009216 0.005724591158059861
173.0957031 0.006377940344717434
173.132782  0.023251412710345767
175.1118774 0.0036083168573664373
177.0545502 0.018752082159820705
177.090744  0.01360083484749466
177.1275177 0.017080745756788893
179.0699005 0.05097042851784912
181.0858765 0.048243409095208314
183.1178284 0.005056087407297933
187.113327  0.004275981415002393
189.0908356 0.005538226574348446
191.070694  0.0038804196146941528
191.1431122 0.02825112795911507
193.085968  0.037043185665756734
195.1011353 0.006404575196115726
201.1272278 0.007327385796708877
205.0845642 0.006313617001038808
207.1014252 0.09699948738094173
216.5387421 0.017691504978434105
219.1374664 0.007478078144928618
221.1172485 0.02828146215345324
275.1636353 0.054060196610698344


