PRECURSORMZ: 457.24430349199986
COMPOUNDNAME: casmi2022challengebonus16
FORMULA: C22H36O7
SMILES: CC12CCCC(C1CCC(=C)C2CCC3(C(C(OC3OC)OC)O)O)(C)C(=O)O
INCHIKEY: ZVVJVAKXIGRPRA-UHFFFAOYSA-N
PRECURSORTYPE: [M+FA-H]-
PRECURSORINTENSITY: 4758594.887695
IONMODE: negative
CHARGE: -1
PARENTMASS: 412.24610249199986
NUM PEAKS: 10
54.91792679 0.01869968632902922
75.84507751 0.017434407856369766
82.2639389  0.01811128462548396
94.66419983 0.018512443096115935
97.05995178 0.020487876017096455
174.9546661 0.029218867213034464
182.1221771 0.01817578175006425
236.2533569 0.01980636483978456
393.8893127 0.019556694311806806
411.2383728 1.0


PRECURSORMZ: 457.24430349199986
COMPOUNDNAME: casmi2022challengebonus16
FORMULA: C22H36O7
SMILES: CC12CCCC(C1CCC(=C)C2CCC3(C(C(OC3OC)OC)O)O)(C)C(=O)O
INCHIKEY: ZVVJVAKXIGRPRA-UHFFFAOYSA-N
PRECURSORTYPE: [M+FA-H]-
PRECURSORINTENSITY: 4758594.887695
IONMODE: negative
CHARGE: -1
PARENTMASS: 412.24610249199986
NUM PEAKS: 10
54.91792679 0.01869968632902922
75.84507751 0.017434407856369766
82.2639389  0.01811128462548396
94.66419983 0.018512443096115935
97.05995178 0.020487876017096455
174.9546661 0.029218867213034464
182.1221771 0.01817578175006425
236.2533569 0.01980636483978456
393.8893127 0.019556694311806806
411.2383728 1.0


