PRECURSORMZ: 367.2454942519999
COMPOUNDNAME: casmi2022challengebonus219
FORMULA: C19H36O5
SMILES: CCCCCCC(CC(=O)OC(CCCCCC)CC(=O)OC)O
INCHIKEY: RTRZNFRQFSTUCO-UHFFFAOYSA-N
PRECURSORTYPE: [M+Na]+
PRECURSORINTENSITY: 75039990.89844
IONMODE: positive
CHARGE: 1
PARENTMASS: 344.2562762519999
NUM PEAKS: 12
62.24146271 0.003330886563486498
91.81296539 0.006219955675963018
176.8066254 0.003829405111778085
183.0990753 0.278296551058953
183.1137085 0.004614656900467934
203.1669464 0.0037827334860368804
207.1353912 0.02080443455640957
212.1376801 0.00357145120473943
216.2899017 0.021039764135233202
246.8428802 0.004053776690550773
267.1565552 0.006729859493883972
367.2451782 1.0


