PRECURSORMZ: 247.1339685
COMPOUNDNAME: casmi2022challengebonus124
FORMULA: C15H20O3
SMILES: CC1CC(=O)C=C2C1(CC(CC2)C(=C)C(=O)O)C
INCHIKEY: GAWKUNMREBFQOL-ISOBSLSZSA-N
PRECURSORTYPE: [M-H]-
PRECURSORINTENSITY: 15992762.60547
IONMODE: negative
CHARGE: -1
PARENTMASS: 248.1412445
NUM PEAKS: 36
50.78461456 0.008978440488782487
50.78758621 0.003785564823029691
61.78177261 0.011355922436798933
61.78567123 0.004454224221163273
70.45089722 0.0020280318017447153
76.12602234 0.0016790662088113472
95.04917908 0.001794358318473981
107.0489655 0.0035549155426784352
115.3127899 0.0018415918667616812
123.0802689 0.003970036661978884
133.0657349 0.0020311082047897114
135.0802307 0.004342910858018312
149.0591431 0.00231752859090144
149.0959015 0.5896160617528513
149.1254272 0.007381485077288383
150.952774  0.0019148038666076748
160.0520782 0.002529989153631018
161.0962524 0.04086471235691295
173.0960846 0.0020608539545314284
175.1117706 0.03771554082404468
185.1322937 0.002605539567791938
187.1117096 0.027531317533344896
201.1275482 0.028837640046430454
203.0747833 0.0019248378276763964
203.0822144 0.002654423850481236
203.0983276 0.0021199902662047635
203.1080017 0.007107467705764482
203.1432648 0.69162579502758
203.1895599 0.00246330027815618
203.1976013 0.001947246244568645
216.4863892 0.01031706277513854
245.1173096 0.0025336970647152476
247.0511627 0.003787056687484297
247.0744934 0.003186888014807623
247.1333618 1.0
247.1955566 0.008974458148777899


