PRECURSORMZ: 349.23843356799995
COMPOUNDNAME: casmi2022challengebonus163
FORMULA: C21H34O4
SMILES: CCC(C)C1C(=CC2CC(CC(C2C1(C)C(=O)CCO)C)C)C(=O)O
INCHIKEY: OHLTUTMHRFQVHX-UHFFFAOYSA-N
PRECURSORTYPE: [M-H]-
PRECURSORINTENSITY: 20611839.48047
IONMODE: negative
CHARGE: -1
PARENTMASS: 350.24570956799994
NUM PEAKS: 52
55.01771545 0.006604892330235797
57.03319168 0.0530232693447783
69.03326416 0.01009994604993367
71.04546356 0.022428570427086136
71.04888153 1.0
71.06053925 0.007833462071277728
72.26358795 0.0060908336443649715
73.54575348 0.006451827503669707
80.34103394 0.005805254271974885
81.03331757 0.0073805990907252
83.04884338 0.14809935202187724
85.06439972 0.012770268847977448
89.17110443 0.006449289983612286
95.04851532 0.007960402507945118
99.08001709 0.03556731975575627
99.51902008 0.009028884724367367
99.52633667 0.011613704460254535
111.0801697 0.08094262548591986
113.09552   0.007531782450434551
117.3963242 0.0063018256254831154
123.0805511 0.006279550276280993
123.6557693 0.007165736981486419
125.0957413 0.12241766213680051
137.095871  0.025882728016163353
139.1116486 0.0837347035573004
143.75737   0.006849550970010331
149.1326294 0.007574968909638771
151.1120605 0.03210005750400024
165.1278839 0.01481166624541803
175.1122131 0.007316257844615622
177.1278687 0.03738405993537089
179.1429749 0.14122386762031058
191.1436157 0.055835366410960874
191.1794739 0.013113142166428626
193.1596222 0.008966056500951128
203.1799927 0.007941548007573868
217.1590881 0.007551042883723515
221.2757568 0.011882374647165217
229.1592407 0.011177164317633818
231.1750031 0.07797011872613513
231.2108459 0.03128639923738876
247.1706848 0.00808293743021949
257.2271118 0.015110605086864189
259.2064209 0.08383299907110364
269.2264709 0.007166342073411648
273.2244263 0.020768868296232836
275.2376709 0.4289336931154077
285.2225647 0.014095477568491511
287.2377014 0.1977201513975845
319.227356  0.23765787732824845
331.2273865 0.09633134675425739
349.2379456 0.008474191157632609


PRECURSORMZ: 349.23843356799995
COMPOUNDNAME: casmi2022challengebonus163
FORMULA: C21H34O4
SMILES: CCC(C)C1C(=CC2CC(CC(C2C1(C)C(=O)CCO)C)C)C(=O)O
INCHIKEY: OHLTUTMHRFQVHX-UHFFFAOYSA-N
PRECURSORTYPE: [M-H]-
PRECURSORINTENSITY: 20611839.48047
IONMODE: negative
CHARGE: -1
PARENTMASS: 350.24570956799994
NUM PEAKS: 52
55.01771545 0.006604892330235797
57.03319168 0.0530232693447783
69.03326416 0.01009994604993367
71.04546356 0.022428570427086136
71.04888153 1.0
71.06053925 0.007833462071277728
72.26358795 0.0060908336443649715
73.54575348 0.006451827503669707
80.34103394 0.005805254271974885
81.03331757 0.0073805990907252
83.04884338 0.14809935202187724
85.06439972 0.012770268847977448
89.17110443 0.006449289983612286
95.04851532 0.007960402507945118
99.08001709 0.03556731975575627
99.51902008 0.009028884724367367
99.52633667 0.011613704460254535
111.0801697 0.08094262548591986
113.09552   0.007531782450434551
117.3963242 0.0063018256254831154
123.0805511 0.006279550276280993
123.6557693 0.007165736981486419
125.0957413 0.12241766213680051
137.095871  0.025882728016163353
139.1116486 0.0837347035573004
143.75737   0.006849550970010331
149.1326294 0.007574968909638771
151.1120605 0.03210005750400024
165.1278839 0.01481166624541803
175.1122131 0.007316257844615622
177.1278687 0.03738405993537089
179.1429749 0.14122386762031058
191.1436157 0.055835366410960874
191.1794739 0.013113142166428626
193.1596222 0.008966056500951128
203.1799927 0.007941548007573868
217.1590881 0.007551042883723515
221.2757568 0.011882374647165217
229.1592407 0.011177164317633818
231.1750031 0.07797011872613513
231.2108459 0.03128639923738876
247.1706848 0.00808293743021949
257.2271118 0.015110605086864189
259.2064209 0.08383299907110364
269.2264709 0.007166342073411648
273.2244263 0.020768868296232836
275.2376709 0.4289336931154077
285.2225647 0.014095477568491511
287.2377014 0.1977201513975845
319.227356  0.23765787732824845
331.2273865 0.09633134675425739
349.2379456 0.008474191157632609


