PRECURSORMZ: 197.08193292800001
COMPOUNDNAME: casmi2022challengebonus211
FORMULA: C10H14O4
SMILES: CC(C)C1(CCC(=CC1=O)C(=O)O)O
INCHIKEY: UGCSSEQNFFXROR-JTQLQIEISA-N
PRECURSORTYPE: [M-H]-
PRECURSORINTENSITY: 82647053.14844
IONMODE: negative
CHARGE: -1
PARENTMASS: 198.089208928
NUM PEAKS: 43
57.03320694 0.0025742089179977856
62.23246765 0.0009016859034436178
71.04879761 0.011270084294473506
78.3553772  0.0010726314527065167
81.01774597 0.0012914561772384985
81.03318024 0.22353241278930605
81.04666138 0.0017152697021898982
83.04897308 0.0022723562164839815
87.04375458 0.006962685891626967
99.07431793 0.0010690094389325501
107.0862122 0.001118844390673534
107.7121658 0.001111526385764962
108.0203552 0.0066675712947113904
109.0280838 0.09704881490504016
109.0500183 0.0010693812779160967
110.0359268 0.12190795674977066
110.0566025 0.0010152431042052597
111.043808  0.012896853852667294
111.0802383 0.005548197657670283
119.048584  0.0010579343088205108
123.0072632 0.005183428854874121
123.0803146 0.002233176367840741
124.0148239 0.0020830335606286097
124.0514832 0.009499395069038697
125.0230408 0.005088684816147386
125.0593033 0.0021226330253008097
125.0958481 0.17809806928163288
125.1187973 0.0010809901752344155
135.0802155 0.3429036759791078
135.1046753 0.003282399534206974
153.0493927 0.002438403128770215
153.0615997 0.006178829587014579
153.0677185 0.005738108639035406
153.0908661 1.0
153.1216888 0.010668870284558093
154.0947723 0.003887107124978576
169.0860901 0.02317065626243806
179.0698853 0.005408202900396513
197.0809631 0.3795506532260126
197.0966797 0.007934778001371337
197.1246033 0.003432854073797132
197.1328735 0.0017220677079009769
219.7501678 0.0015106148273566992


PRECURSORMZ: 197.08193292800001
COMPOUNDNAME: casmi2022challengebonus211
FORMULA: C10H14O4
SMILES: CC(C)C1(CCC(=CC1=O)C(=O)O)O
INCHIKEY: UGCSSEQNFFXROR-JTQLQIEISA-N
PRECURSORTYPE: [M-H]-
PRECURSORINTENSITY: 82647053.14844
IONMODE: negative
CHARGE: -1
PARENTMASS: 198.089208928
NUM PEAKS: 43
57.03320694 0.0025742089179977856
62.23246765 0.0009016859034436178
71.04879761 0.011270084294473506
78.3553772  0.0010726314527065167
81.01774597 0.0012914561772384985
81.03318024 0.22353241278930605
81.04666138 0.0017152697021898982
83.04897308 0.0022723562164839815
87.04375458 0.006962685891626967
99.07431793 0.0010690094389325501
107.0862122 0.001118844390673534
107.7121658 0.001111526385764962
108.0203552 0.0066675712947113904
109.0280838 0.09704881490504016
109.0500183 0.0010693812779160967
110.0359268 0.12190795674977066
110.0566025 0.0010152431042052597
111.043808  0.012896853852667294
111.0802383 0.005548197657670283
119.048584  0.0010579343088205108
123.0072632 0.005183428854874121
123.0803146 0.002233176367840741
124.0148239 0.0020830335606286097
124.0514832 0.009499395069038697
125.0230408 0.005088684816147386
125.0593033 0.0021226330253008097
125.0958481 0.17809806928163288
125.1187973 0.0010809901752344155
135.0802155 0.3429036759791078
135.1046753 0.003282399534206974
153.0493927 0.002438403128770215
153.0615997 0.006178829587014579
153.0677185 0.005738108639035406
153.0908661 1.0
153.1216888 0.010668870284558093
154.0947723 0.003887107124978576
169.0860901 0.02317065626243806
179.0698853 0.005408202900396513
197.0809631 0.3795506532260126
197.0966797 0.007934778001371337
197.1246033 0.003432854073797132
197.1328735 0.0017220677079009769
219.7501678 0.0015106148273566992


