PRECURSORMZ: 489.3221631919999
COMPOUNDNAME: casmi2022challengebonus73
FORMULA: C29H46O6
SMILES: CC(C)C(=C)CC(C(C)C(=O)CCC1C2=C(CCC1(C)O)C3(CCC(C(C3CC2)C(=O)O)O)C)O
INCHIKEY: COTTWHFDYUNZOT-UHFFFAOYSA-N
PRECURSORTYPE: [M-H]-
PRECURSORINTENSITY: 70456279.25781
IONMODE: negative
CHARGE: -1
PARENTMASS: 490.3294391919999
NUM PEAKS: 65
50.64179611 0.0034283884556815824
57.02997971 0.010092636306064598
57.03092957 0.009313965714616042
57.03326797 0.4947470524541747
59.01250839 0.13562337254803716
60.99180984 0.1266004289983351
69.03322601 0.04277355086900743
71.03936005 0.011902831853702295
71.04886627 1.0
71.061409   0.007903649638077648
82.76486206 0.004252973284231655
83.04893494 0.10043181491448792
85.06440735 0.007864132039477752
85.8585968  0.0038617797660068925
87.34967804 0.004996124211294782
94.30619812 0.00686382510881355
99.53895569 0.006477621907854768
109.064415  0.004095186347501638
111.080307  0.030548280292014313
140.1538849 0.004814040902887727
165.1276398 0.020130637271152475
177.1273651 0.05303874090658797
179.1429291 0.004525826881116882
205.1567993 0.013834294416808971
207.1746521 0.016581620142174448
217.1225891 0.018685147134867467
219.1386108 0.12205975208486265
219.1755066 0.009133417801919133
221.3303986 0.004632595655445227
227.1441498 0.03453580981030617
229.15979   0.03479812513718451
231.1760712 0.004187488657193889
235.1331787 0.016306989029486293
237.1500092 0.04264709275375653
243.1746674 0.020879512187168017
245.1902924 0.018452040321106606
247.1332703 0.020848732283715678
247.1685791 0.007526355106733781
249.1490326 0.10526355336199514
257.1546936 0.03847123036034291
257.1902771 0.02425727926494369
259.1340637 0.018088031180775586
259.1711121 0.00845234551053084
261.1846008 0.006394478824110323
263.1645508 0.04651881856571067
273.1500549 0.07565982826388638
273.182312  0.0077350091971665315
275.164917  0.18230229970377143
277.2178955 0.025126749671711024
287.1655273 0.030633331090868215
289.1803894 0.016658367431041318
293.1746216 0.034589565532641614
301.1809692 0.029638664630378758
303.1975098 0.017842956154299743
305.1755066 0.19403622340654136
305.2140198 0.008343127695682438
319.190979  0.24951104901798385
321.1721802 0.007579246395660258
321.2067566 0.4108093153800784
331.2279968 0.03318154580067631
347.1857605 0.006970839377730687
359.2219849 0.13932622057952354
377.2329407 0.7484042683001891
380.7424011 0.004477989181257656
415.2805176 0.005277459885250576


PRECURSORMZ: 489.3221631919999
COMPOUNDNAME: casmi2022challengebonus73
FORMULA: C29H46O6
SMILES: CC(C)C(=C)CC(C(C)C(=O)CCC1C2=C(CCC1(C)O)C3(CCC(C(C3CC2)C(=O)O)O)C)O
INCHIKEY: COTTWHFDYUNZOT-UHFFFAOYSA-N
PRECURSORTYPE: [M-H]-
PRECURSORINTENSITY: 70456279.25781
IONMODE: negative
CHARGE: -1
PARENTMASS: 490.3294391919999
NUM PEAKS: 65
50.64179611 0.0034283884556815824
57.02997971 0.010092636306064598
57.03092957 0.009313965714616042
57.03326797 0.4947470524541747
59.01250839 0.13562337254803716
60.99180984 0.1266004289983351
69.03322601 0.04277355086900743
71.03936005 0.011902831853702295
71.04886627 1.0
71.061409   0.007903649638077648
82.76486206 0.004252973284231655
83.04893494 0.10043181491448792
85.06440735 0.007864132039477752
85.8585968  0.0038617797660068925
87.34967804 0.004996124211294782
94.30619812 0.00686382510881355
99.53895569 0.006477621907854768
109.064415  0.004095186347501638
111.080307  0.030548280292014313
140.1538849 0.004814040902887727
165.1276398 0.020130637271152475
177.1273651 0.05303874090658797
179.1429291 0.004525826881116882
205.1567993 0.013834294416808971
207.1746521 0.016581620142174448
217.1225891 0.018685147134867467
219.1386108 0.12205975208486265
219.1755066 0.009133417801919133
221.3303986 0.004632595655445227
227.1441498 0.03453580981030617
229.15979   0.03479812513718451
231.1760712 0.004187488657193889
235.1331787 0.016306989029486293
237.1500092 0.04264709275375653
243.1746674 0.020879512187168017
245.1902924 0.018452040321106606
247.1332703 0.020848732283715678
247.1685791 0.007526355106733781
249.1490326 0.10526355336199514
257.1546936 0.03847123036034291
257.1902771 0.02425727926494369
259.1340637 0.018088031180775586
259.1711121 0.00845234551053084
261.1846008 0.006394478824110323
263.1645508 0.04651881856571067
273.1500549 0.07565982826388638
273.182312  0.0077350091971665315
275.164917  0.18230229970377143
277.2178955 0.025126749671711024
287.1655273 0.030633331090868215
289.1803894 0.016658367431041318
293.1746216 0.034589565532641614
301.1809692 0.029638664630378758
303.1975098 0.017842956154299743
305.1755066 0.19403622340654136
305.2140198 0.008343127695682438
319.190979  0.24951104901798385
321.1721802 0.007579246395660258
321.2067566 0.4108093153800784
331.2279968 0.03318154580067631
347.1857605 0.006970839377730687
359.2219849 0.13932622057952354
377.2329407 0.7484042683001891
380.7424011 0.004477989181257656
415.2805176 0.005277459885250576


