PRECURSORMZ: 673.392218056
COMPOUNDNAME: casmi2022challengebonus148
FORMULA: C36H58O10
SMILES: CC1CCC2(CCC3(C(=CCC4C3(CCC5C4(CCC(C5(C)CO)O)C)C)C2C1(C)O)C)C(=O)OC6C(C(C(C(O6)CO)O)O)O
INCHIKEY: LARPFJIXBULVPK-LFHLQLAPSA-N
PRECURSORTYPE: [M+Na]+
PRECURSORINTENSITY: 4553028.46875
IONMODE: positive
CHARGE: 1
PARENTMASS: 650.403000056
NUM PEAKS: 9
125.0473557 0.021205967639744056
185.042099  0.5817385129211484
221.0991974 0.02925229941216181
323.8324585 0.023802092753520236
385.9130859 0.022677689332224207
467.3498535 0.05109476021470819
511.3394165 1.0
604.006958  0.025565349161264597
673.3900757 0.15360853761036866


