PRECURSORMZ: 565.1562796399999
COMPOUNDNAME: casmi2022challengebonus221
FORMULA: C26H30O14
SMILES: C1C(OC2=C(C1=O)C(=C(C(=C2)O)C3C(C(C(C(O3)CO)O)O)O)O)C4=CC=C(C=C4)OC5C(C(CO5)(CO)O)O
INCHIKEY: VAUYLVGYXZEEFW-KDPWZIHCSA-N
PRECURSORTYPE: [M-H]-
PRECURSORINTENSITY: 70012349.92188
IONMODE: negative
CHARGE: -1
PARENTMASS: 566.1635556399999
NUM PEAKS: 51
57.86188507 0.0015990054368238168
58.33406067 0.0013980244658554754
67.87252808 0.0013939207280952532
78.26566315 0.012966488784075405
78.27132416 0.007850767415434962
85.76843262 0.0022295139334986796
85.77350616 0.0023091356908389355
93.03287506 0.0024020175849274526
116.3530731 0.0012806116663312524
119.0485992 0.007997475548001993
125.0229797 0.006316861766165728
143.0473938 0.0017793734174769385
145.0273132 0.002806410049920061
147.3894043 0.001502599284304254
149.022644  0.002703710603598496
151.002121  0.008346969471303246
165.0182953 0.006342439487918552
167.0333862 0.008568812972465879
176.6665649 0.001428454660855177
187.0392914 0.0029282274484235685
193.0134735 0.07324532713800468
197.0442963 0.0026707616082040655
205.0135345 0.0022827599975508853
215.0989075 0.012731017671467976
219.0289307 0.009591760580038595
223.0245667 0.016433081028265118
227.0706024 0.0015807768614531429
269.0819397 0.0029597482508612236
271.0611267 0.05106472869279206
283.0610962 0.010754349499091117
284.0661926 0.0018531905343159686
285.077179  0.002164082121202523
295.0612488 0.0020235717065785154
304.2875061 0.0025843063507219877
311.0541687 0.0018510396720158794
312.9620972 0.005156387332662125
313.0714417 1.0
313.1357422 0.005024802660619863
313.1581116 0.010622362597494512
313.2018738 0.0020618368050229568
325.0716553 0.018092502224607475
343.0819092 0.26986333359313286
355.0816345 0.018594108429165545
433.1125183 0.00255990357486206
445.0428772 0.0021114822658064576
445.0600281 0.001987071228114412
445.1133423 0.08219724429826075
475.1239319 0.03226981688998155
487.1235962 0.006836953847891775
539.8616943 0.0015685329567471297
565.1553955 0.00628503512097938


