PRECURSORMZ: 449.10893552399983
COMPOUNDNAME: casmi2022challengebonus175
FORMULA: C21H22O11
SMILES: C1C(OC2=CC(=CC(=C2C1=O)O)O)C3=CC(=C(C=C3)O)OC4C(C(C(C(O4)CO)O)O)O
INCHIKEY: KTDWFYOXQQWERW-GCNAUYOQSA-N
PRECURSORTYPE: [M-H]-
PRECURSORINTENSITY: 15717886.80664
IONMODE: negative
CHARGE: -1
PARENTMASS: 450.1162115239998
NUM PEAKS: 27
52.9004364  0.00254507768689114
63.022995   0.0032681191185200214
65.00196075 0.029158460423150845
83.01248169 0.013738836523728381
103.1378403 0.0015233551452528977
107.0124893 0.0792214609070817
107.1006546 0.001641829638290205
109.0280304 0.012328671632492579
125.0230942 0.041874159282686944
134.9595032 0.0012742827554434854
135.0438232 0.42128141135815345
135.0692596 0.00707709957728606
150.9640045 0.007179478757311923
151.0023804 1.0
151.0254669 0.005660845318653699
151.0322571 0.013485860958112566
161.0231934 0.007940234084155366
165.0186768 0.005244220647850379
169.0135803 0.010413480253487347
177.0179749 0.004936014849474969
214.2366943 0.0013848961805992394
221.2763824 0.002138479987504801
259.1258545 0.001464281986061457
269.0443726 0.005752943742142105
287.0557251 0.04997154144155992
445.5717163 0.0014633644741578473
445.8534851 0.001737400516036053


