PRECURSORMZ: 899.1676321720001
COMPOUNDNAME: casmi2022challengebonus10
FORMULA: C44H36O21
SMILES: C1C2C(C(C(C(O2)OC3=CC(=C(C(=C3)O)C(=O)CCC4=CC=C(C=C4)O)O)O)OC(=O)C=CC5=CC(=C(C=C5)O)O)OC(=O)C6=CC(=C(C(=C6C7=C(C(=C(C=C7C(=O)O1)O)O)O)O)O)O
INCHIKEY: ADNMXQSCHOROTR-VHZKUOFCSA-N
PRECURSORTYPE: [M-H]-
PRECURSORINTENSITY: 4184575.796875
IONMODE: negative
CHARGE: -1
PARENTMASS: 900.1749081720002
NUM PEAKS: 15
125.0236969 0.01284626282623052
161.0233765 0.01937618962434291
167.0340881 0.0502115912499755
167.2789459 0.008700393169284145
179.0326385 0.009762623468259707
249.0393677 0.012403055103265061
273.0766602 0.07779800702255449
275.0164795 0.06390881016621788
300.9686584 0.02113921866491532
300.9983521 1.0
304.2766418 0.01889791884672393
305.4375305 0.009819732882379322
347.7892456 0.008864771128093469
382.8354797 0.011243335893999932
627.1387329 0.009297757280702855


PRECURSORMZ: 899.1676321720001
COMPOUNDNAME: casmi2022challengebonus10
FORMULA: C44H36O21
SMILES: C1C2C(C(C(C(O2)OC3=CC(=C(C(=C3)O)C(=O)CCC4=CC=C(C=C4)O)O)O)OC(=O)C=CC5=CC(=C(C=C5)O)O)OC(=O)C6=CC(=C(C(=C6C7=C(C(=C(C=C7C(=O)O1)O)O)O)O)O)O
INCHIKEY: ADNMXQSCHOROTR-VHZKUOFCSA-N
PRECURSORTYPE: [M-H]-
PRECURSORINTENSITY: 4184575.796875
IONMODE: negative
CHARGE: -1
PARENTMASS: 900.1749081720002
NUM PEAKS: 15
125.0236969 0.01284626282623052
161.0233765 0.01937618962434291
167.0340881 0.0502115912499755
167.2789459 0.008700393169284145
179.0326385 0.009762623468259707
249.0393677 0.012403055103265061
273.0766602 0.07779800702255449
275.0164795 0.06390881016621788
300.9686584 0.02113921866491532
300.9983521 1.0
304.2766418 0.01889791884672393
305.4375305 0.009819732882379322
347.7892456 0.008864771128093469
382.8354797 0.011243335893999932
627.1387329 0.009297757280702855


