PRECURSORMZ: 487.3418005719999
COMPOUNDNAME: casmi2022challengebonus170
FORMULA: C30H46O5
SMILES: CC1C2C(CC3(C2(CCC45C3CCC6C4(C5)CCC(=O)C6(C)C)C)C)OC7(C1OC(C7O)(C)C)O
INCHIKEY: OQQCBMOTOPRDSL-UHFFFAOYSA-N
PRECURSORTYPE: [M+H]+
PRECURSORINTENSITY: 5178939.9375
IONMODE: positive
CHARGE: 1
PARENTMASS: 486.3345245719999
NUM PEAKS: 55
57.06998825 0.11152732944940522
67.05434418 0.1745061740201291
69.07004547 0.13700310822552497
71.049263   0.23066658893022537
77.27912903 0.09104675670271799
79.05443573 0.15221578798234128
80.99219513 0.14705843235756355
81.06986237 0.4773099054658417
83.04909515 0.14104765675251002
89.87876129 0.0979297468545681
91.05444336 0.20743401349239132
93.06978607 0.41371833391783
95.08557129 0.531812300080458
105.0698853 0.4984685090257315
107.0857086 0.5575626442691419
109.1013031 0.5169609561614676
119.0852127 0.8153150865381803
121.1010895 0.7291475339117868
123.1165848 0.10867467386856405
131.0855408 0.47954809625003897
132.3441162 0.10741347909746761
133.1005402 0.7703533402615738
135.080368  0.10461333981476435
135.1168671 0.44535841911397167
143.0853577 0.21501213138541128
145.1010284 0.9056564593519835
147.1167908 0.5252212836703002
149.0971069 0.1094669286347326
157.1010895 0.4092131427199312
159.1167755 0.6701561409593695
161.0964203 0.1635555715653688
161.1318054 0.7508716017896847
171.1154022 0.1504569339835989
172.4890137 0.09819752171289761
173.1314545 0.2277924366244404
185.1323395 0.5045665070899815
187.148468  0.44515872056636274
189.1639404 0.11191195005752283
197.1325684 0.14924694963481985
199.1474915 0.37055001721345227
201.1631775 1.0
213.164093  0.18257907821400549
215.1782074 0.1374346800917655
218.4934387 0.2496447615977041
223.1471863 0.1242708592164637
237.1629639 0.10435985927399952
241.1590271 0.15242151364909334
241.1895905 0.10959622038554816
255.2098999 0.14024652203080806
273.2207947 0.5334301797624447
293.2258606 0.1572316268496425
311.2362366 0.23398970134097982
397.2756348 0.14245852498232744
424.1534424 0.10654482055096753
426.5493164 0.10432794567813769


