PRECURSORMZ: 1119.5592743920004
COMPOUNDNAME: casmi2022challengebonus201
FORMULA: C53H86O22
SMILES: CC1(CCC2(CCC3(C(=CCC4C3(CCC5C4(CCC(C5(C)C)OC6C(C(C(CO6)OC7C(C(C(C(O7)CO)O)O)O)O)OC8C(C(C(C(O8)CO)O)O)O)C)C)C2C1)C)C(=O)OC9C(C(C(C(O9)CO)O)O)O)C
INCHIKEY: KMEIZYNJCUTZNU-STDVHTBBSA-N
PRECURSORTYPE: [M+FA-H]-
PRECURSORINTENSITY: 24036140.38672
IONMODE: negative
CHARGE: -1
PARENTMASS: 1074.5610733920003
NUM PEAKS: 20
83.01244354 0.19211285768722888
85.02807617 1.0
85.99921417 0.03675063502190552
87.00701904 0.12340509980490376
89.02283478 0.10059981875122244
95.01215363 0.14859645958419795
97.027565   0.02364432993067585
99.00680542 0.04566528508474451
101.0231018 0.3837023754165713
113.0230789 0.29937789585562297
178.331543  0.029179774846526816
215.2157898 0.23131802664314663
261.971405  0.02470012543918647
304.2887878 0.025183229788568462
407.3316345 0.05047406181868422
437.3381042 0.03350618520672012
455.3525391 0.6317838741310324
569.3870239 0.049491073368253
587.3932495 0.5031549855927542
905.8198853 0.028564072702084362


