PRECURSORMZ: 222.14885484799998
COMPOUNDNAME: casmi2022challengebonus214
FORMULA: C13H19NO2
SMILES: CC(C)CNC(=O)CC(C1=CC=CC=C1)O
INCHIKEY: CAMHORNWWUQADP-LBPRGKRZSA-N
PRECURSORTYPE: [M+H]+
PRECURSORINTENSITY: 132002473.375
IONMODE: positive
CHARGE: 1
PARENTMASS: 221.141578848
NUM PEAKS: 36
51.72698212 0.0009918979944905362
52.43014145 0.0010182317787493316
55.09551239 0.0008584894115150247
57.06341171 0.006449808286749144
57.06512833 0.0016692838059865311
57.06779099 0.007701668885019791
57.07012558 0.4230940790565957
57.07892227 0.005416110483380104
57.60359192 0.0010679768828040902
61.44913864 0.0011590336300316558
72.12232208 0.0009848877625707772
74.2162323  0.0009650267447523957
77.03902435 0.0020727506722174973
79.05444336 0.004348701298896683
81.77933502 0.001116346686418323
84.08103943 0.0012299264433481803
85.06481934 0.038844750931410765
90.22701263 0.0011504386226066476
91.05425262 0.012581514322218677
93.06988525 0.04408396781954833
103.0462036 0.0026260206795288353
103.0480652 0.0024535877016869804
103.054184  0.13310142984482204
105.0447083 0.001457723785272801
105.0698166 0.010279244407373081
114.7963181 0.0010651290536277229
118.0653076 0.0022620209266613527
119.0735931 0.001035354341061362
120.0602493 0.012891573984729003
120.0644913 0.0076643468015428935
120.0807037 1.0
120.10746   0.007944594662385621
121.0648804 0.005056018668066728
122.0324707 0.0011080440821541102
148.0759583 0.0012278160212497188
221.0533905 0.0015264501510527304


PRECURSORMZ: 222.14885484799998
COMPOUNDNAME: casmi2022challengebonus214
FORMULA: C13H19NO2
SMILES: CC(C)CNC(=O)CC(C1=CC=CC=C1)O
INCHIKEY: CAMHORNWWUQADP-LBPRGKRZSA-N
PRECURSORTYPE: [M+H]+
PRECURSORINTENSITY: 132002473.375
IONMODE: positive
CHARGE: 1
PARENTMASS: 221.141578848
NUM PEAKS: 36
51.72698212 0.0009918979944905362
52.43014145 0.0010182317787493316
55.09551239 0.0008584894115150247
57.06341171 0.006449808286749144
57.06512833 0.0016692838059865311
57.06779099 0.007701668885019791
57.07012558 0.4230940790565957
57.07892227 0.005416110483380104
57.60359192 0.0010679768828040902
61.44913864 0.0011590336300316558
72.12232208 0.0009848877625707772
74.2162323  0.0009650267447523957
77.03902435 0.0020727506722174973
79.05444336 0.004348701298896683
81.77933502 0.001116346686418323
84.08103943 0.0012299264433481803
85.06481934 0.038844750931410765
90.22701263 0.0011504386226066476
91.05425262 0.012581514322218677
93.06988525 0.04408396781954833
103.0462036 0.0026260206795288353
103.0480652 0.0024535877016869804
103.054184  0.13310142984482204
105.0447083 0.001457723785272801
105.0698166 0.010279244407373081
114.7963181 0.0010651290536277229
118.0653076 0.0022620209266613527
119.0735931 0.001035354341061362
120.0602493 0.012891573984729003
120.0644913 0.0076643468015428935
120.0807037 1.0
120.10746   0.007944594662385621
121.0648804 0.005056018668066728
122.0324707 0.0011080440821541102
148.0759583 0.0012278160212497188
221.0533905 0.0015264501510527304


