PRECURSORMZ: 379.2479001879999
COMPOUNDNAME: casmi2022challengebonus90
FORMULA: C22H34O5
SMILES: CC(=CCO)CCC1C(=C)CCC2C1(C(CCC2(C)C(=O)O)OC(=O)C)C
INCHIKEY: LUNSNRWUCHZPDQ-UHFFFAOYSA-N
PRECURSORTYPE: [M+H]+
PRECURSORINTENSITY: 513874.1181641
IONMODE: positive
CHARGE: 1
PARENTMASS: 378.2406241879999
NUM PEAKS: 11
57.18112183 0.01793532140359975
62.10420609 0.016290055273790124
68.86510468 0.019816351414425174
95.51031494 0.018208779514470447
134.0274963 0.018192101315520633
139.4911041 0.016217290240093954
152.0030975 0.018282628265910948
216.1483154 0.08836888738185227
250.9796295 0.020527426199651075
255.8031006 0.01750602112789309
379.2452698 1.0


