PRECURSORMZ: 295.054730112
COMPOUNDNAME: casmi2022challengebonus114
FORMULA: C10H11F3N2O5
SMILES: C1C(C(OC1N2C=C(C(=O)NC2=O)C(F)(F)F)CO)O
INCHIKEY: VSQQQLOSPVPRAZ-RRKCRQDMSA-N
PRECURSORTYPE: [M-H]-
PRECURSORINTENSITY: 1633141.949219
IONMODE: negative
CHARGE: -1
PARENTMASS: 296.062006112
NUM PEAKS: 23
58.39031982 0.05094895116407646
64.96238708 0.04249155377537175
65.00228882 0.05313584756145965
66.0335083  1.0
67.02922821 0.047576817615988004
71.01255035 0.058099999763689944
90.03344727 0.06374709896586456
94.0282135  0.2283378292050696
102.9871368 0.21154106364206132
105.6043167 0.057728708529663955
108.9891052 0.2660714468573257
114.997963  0.057486928334249544
116.0299149 0.06259688165251208
118.0281143 0.10560996132654663
130.9822998 0.24778577478233874
136.930954  0.06012336632075778
162.015976  0.3052199272042499
162.0310364 0.049318083574464405
165.3010254 0.05375377647536901
167.9824524 0.04321878976518395
216.747818  0.292162177490382
259.8630676 0.0497215501729582
298.1268311 0.044579839955952646


PRECURSORMZ: 295.054730112
COMPOUNDNAME: casmi2022challengebonus114
FORMULA: C10H11F3N2O5
SMILES: C1C(C(OC1N2C=C(C(=O)NC2=O)C(F)(F)F)CO)O
INCHIKEY: VSQQQLOSPVPRAZ-RRKCRQDMSA-N
PRECURSORTYPE: [M-H]-
PRECURSORINTENSITY: 1633141.949219
IONMODE: negative
CHARGE: -1
PARENTMASS: 296.062006112
NUM PEAKS: 23
58.39031982 0.05094895116407646
64.96238708 0.04249155377537175
65.00228882 0.05313584756145965
66.0335083  1.0
67.02922821 0.047576817615988004
71.01255035 0.058099999763689944
90.03344727 0.06374709896586456
94.0282135  0.2283378292050696
102.9871368 0.21154106364206132
105.6043167 0.057728708529663955
108.9891052 0.2660714468573257
114.997963  0.057486928334249544
116.0299149 0.06259688165251208
118.0281143 0.10560996132654663
130.9822998 0.24778577478233874
136.930954  0.06012336632075778
162.015976  0.3052199272042499
162.0310364 0.049318083574464405
165.3010254 0.05375377647536901
167.9824524 0.04321878976518395
216.747818  0.292162177490382
259.8630676 0.0497215501729582
298.1268311 0.044579839955952646


