PRECURSORMZ: 553.2408027959999
COMPOUNDNAME: casmi2022challengebonus195
FORMULA: C29H38O9
SMILES: CC=C(C)C(=O)OC1C2=CC(=C(C(=C2C3=C(C(=C(C=C3CC(C1(C)O)C)OC)OC)OC)OC)OC)OC
INCHIKEY: RHABJANPSGWEFC-UHFFFAOYSA-N
PRECURSORTYPE: [M+Na]+
PRECURSORINTENSITY: 28441626.00781
IONMODE: positive
CHARGE: 1
PARENTMASS: 530.2515847959999
NUM PEAKS: 151
56.88309097 0.004794914514434337
59.04924774 0.00818006669876547
75.04402161 0.02372538029208412
75.09442902 0.004459567318617382
85.2809906  0.00789375361392788
85.28582001 0.005887756462321778
85.7754364  0.005386660753136946
88.84074402 0.005269804324788902
89.03710938 0.007622010845721069
89.04264069 0.0068588934124703856
89.279953   0.004786479086466493
106.2381973 0.004586968119812609
108.9626236 0.005043664545370757
129.9809723 0.00435070406908589
219.1010437 0.0058035480756466465
220.0688324 0.006638451545804991
245.191391  0.005107053473195659
254.4236603 0.004592569356479007
255.1025848 0.006485332796353336
266.0934448 0.006945160120910568
267.1018066 0.008801834553537953
268.1078796 0.007415930475339794
269.0845032 0.006766916838597762
269.1172485 0.01841394267438538
270.0895691 0.008002072313431396
271.0965576 0.00885757271166649
277.0849609 0.005017319432976194
279.1038513 0.006161086124541861
280.1114197 0.016285701951352313
281.0818787 0.00802304364162435
281.1171265 0.02767895552140683
282.0900879 0.007945666211433625
282.1246948 0.050212965817023315
283.0959778 0.0274265992966762
283.1312866 0.015273779645458207
284.1040955 0.06298226953545981
285.0783081 0.012417968055689926
285.1112366 0.08227684768742365
286.1200562 0.005645687979372769
293.0821838 0.00654842958662297
293.1180725 0.019509466241132516
294.0890503 0.00777039844328306
294.124939  0.022837916318867123
295.0961609 0.021563165834572663
295.1291504 0.012458077030380618
296.1042786 0.017898049547654348
296.138855  0.006497001424196949
297.0757446 0.01627342865853247
297.1124878 0.051338351396410485
297.1464539 0.008271911793160776
298.0840454 0.00764117239757819
298.1192017 0.07608038725557473
299.0906982 0.025694515379302122
299.1275024 0.06373567084626097
300.1002502 0.048587609486546626
301.1071777 0.1410357489183528
302.1116028 0.00579364844440791
306.1243896 0.0064737021358454395
307.1330261 0.017257586998634302
308.1047974 0.005763761823309618
308.1425781 0.008998608708075624
309.111908  0.09717440900326463
310.0837097 0.009218230761529205
310.1196899 0.15159297441170316
311.0910034 0.023584122116451164
311.1279602 0.08174891047808469
312.0986938 0.07997471656680788
312.1360779 0.025621412789873576
313.0664062 0.009069902927365956
313.1061401 0.15917788062394675
313.1435547 0.20372430876949835
314.1145935 0.05202910379088379
314.1515503 0.008378540946224824
315.0866089 0.019923746121706967
315.122406  0.31991866552970905
316.0942383 0.007623466963355615
316.130127  0.15779474464576196
317.0995483 0.008543830336069981
320.1419373 0.017926769727827637
321.112915  0.02573763221070015
322.1194458 0.00590592805105517
323.1277161 0.023535089411669416
324.1348267 0.04823769689579063
325.105896  0.08229549949264389
325.1437683 0.1813744063033652
326.1137085 0.12357701800607927
326.1516418 0.25687756631065495
327.0820923 0.010192877580935181
327.122345  0.1743976074391229
327.1579285 0.007660157471634181
328.0929565 0.023541616981017456
328.1306458 0.16600104396111245
329.1005859 0.056892882615122584
329.1386108 0.1576889985848027
329.1835632 0.009341803892804992
330.1072388 0.034812638229225965
330.1468506 0.02078009516020528
331.1170044 0.11437156465921644
332.1253357 0.02137497300100571
335.1276245 0.04052824094802469
336.1357422 0.15691893101981952
337.1029053 0.008964158975703226
337.1436768 0.021621641156366927
339.1216736 0.01950667072026567
339.1597595 0.04654607772110489
340.1303101 0.03960946798481756
340.171051  0.009148888344534239
341.1382446 1.0
342.1096191 0.027249221528998044
342.1471558 0.2799188680221662
343.1168213 0.46070525872911233
343.1526184 0.034859439298386134
344.1242371 0.08053265640854879
344.1647644 0.006524525633295232
345.1328125 0.11549287789029859
346.1417236 0.02885778223511174
350.1511536 0.018526619883409343
351.1168823 0.0070049699242453935
351.1615906 0.049394648799332225
352.1283569 0.04299344036934624
353.1378784 0.042069304168419724
354.1474915 0.018904181131752844
355.1556091 0.05393189166203559
356.1616516 0.851919066014791
356.2147522 0.006732012201295502
357.1308594 0.4145219490573976
357.1704407 0.05698280051568079
358.0885925 0.009916125233710117
358.1406555 0.5157225043367134
359.1080627 0.10523899734734882
359.1596985 0.03744200559779148
366.1463928 0.009042738704858316
367.1538086 0.3214183921648919
368.1629944 0.00929245971525068
369.1325073 0.023795853291964875
369.1748657 0.010822096876891335
370.1794128 0.006865634723856536
371.1491699 0.019254119034065983
372.1560974 0.2636297897903303
373.1648865 0.0824297294925764
374.1337891 0.0913473454363825
382.177002  0.08868895133656271
383.1492615 0.04843668510847971
384.1587524 0.009620974899934978
385.1638184 0.05807767160673265
387.1796875 0.020738279061604956
389.1612244 0.005659802336425432
398.1714783 0.008501349809094684
400.1888428 0.03561335527751591
511.4191284 0.005517281395330488
561.2628784 0.004671270018629342


PRECURSORMZ: 553.2408027959999
COMPOUNDNAME: casmi2022challengebonus195
FORMULA: C29H38O9
SMILES: CC=C(C)C(=O)OC1C2=CC(=C(C(=C2C3=C(C(=C(C=C3CC(C1(C)O)C)OC)OC)OC)OC)OC)OC
INCHIKEY: RHABJANPSGWEFC-UHFFFAOYSA-N
PRECURSORTYPE: [M+Na]+
PRECURSORINTENSITY: 28441626.00781
IONMODE: positive
CHARGE: 1
PARENTMASS: 530.2515847959999
NUM PEAKS: 151
56.88309097 0.004794914514434337
59.04924774 0.00818006669876547
75.04402161 0.02372538029208412
75.09442902 0.004459567318617382
85.2809906  0.00789375361392788
85.28582001 0.005887756462321778
85.7754364  0.005386660753136946
88.84074402 0.005269804324788902
89.03710938 0.007622010845721069
89.04264069 0.0068588934124703856
89.279953   0.004786479086466493
106.2381973 0.004586968119812609
108.9626236 0.005043664545370757
129.9809723 0.00435070406908589
219.1010437 0.0058035480756466465
220.0688324 0.006638451545804991
245.191391  0.005107053473195659
254.4236603 0.004592569356479007
255.1025848 0.006485332796353336
266.0934448 0.006945160120910568
267.1018066 0.008801834553537953
268.1078796 0.007415930475339794
269.0845032 0.006766916838597762
269.1172485 0.01841394267438538
270.0895691 0.008002072313431396
271.0965576 0.00885757271166649
277.0849609 0.005017319432976194
279.1038513 0.006161086124541861
280.1114197 0.016285701951352313
281.0818787 0.00802304364162435
281.1171265 0.02767895552140683
282.0900879 0.007945666211433625
282.1246948 0.050212965817023315
283.0959778 0.0274265992966762
283.1312866 0.015273779645458207
284.1040955 0.06298226953545981
285.0783081 0.012417968055689926
285.1112366 0.08227684768742365
286.1200562 0.005645687979372769
293.0821838 0.00654842958662297
293.1180725 0.019509466241132516
294.0890503 0.00777039844328306
294.124939  0.022837916318867123
295.0961609 0.021563165834572663
295.1291504 0.012458077030380618
296.1042786 0.017898049547654348
296.138855  0.006497001424196949
297.0757446 0.01627342865853247
297.1124878 0.051338351396410485
297.1464539 0.008271911793160776
298.0840454 0.00764117239757819
298.1192017 0.07608038725557473
299.0906982 0.025694515379302122
299.1275024 0.06373567084626097
300.1002502 0.048587609486546626
301.1071777 0.1410357489183528
302.1116028 0.00579364844440791
306.1243896 0.0064737021358454395
307.1330261 0.017257586998634302
308.1047974 0.005763761823309618
308.1425781 0.008998608708075624
309.111908  0.09717440900326463
310.0837097 0.009218230761529205
310.1196899 0.15159297441170316
311.0910034 0.023584122116451164
311.1279602 0.08174891047808469
312.0986938 0.07997471656680788
312.1360779 0.025621412789873576
313.0664062 0.009069902927365956
313.1061401 0.15917788062394675
313.1435547 0.20372430876949835
314.1145935 0.05202910379088379
314.1515503 0.008378540946224824
315.0866089 0.019923746121706967
315.122406  0.31991866552970905
316.0942383 0.007623466963355615
316.130127  0.15779474464576196
317.0995483 0.008543830336069981
320.1419373 0.017926769727827637
321.112915  0.02573763221070015
322.1194458 0.00590592805105517
323.1277161 0.023535089411669416
324.1348267 0.04823769689579063
325.105896  0.08229549949264389
325.1437683 0.1813744063033652
326.1137085 0.12357701800607927
326.1516418 0.25687756631065495
327.0820923 0.010192877580935181
327.122345  0.1743976074391229
327.1579285 0.007660157471634181
328.0929565 0.023541616981017456
328.1306458 0.16600104396111245
329.1005859 0.056892882615122584
329.1386108 0.1576889985848027
329.1835632 0.009341803892804992
330.1072388 0.034812638229225965
330.1468506 0.02078009516020528
331.1170044 0.11437156465921644
332.1253357 0.02137497300100571
335.1276245 0.04052824094802469
336.1357422 0.15691893101981952
337.1029053 0.008964158975703226
337.1436768 0.021621641156366927
339.1216736 0.01950667072026567
339.1597595 0.04654607772110489
340.1303101 0.03960946798481756
340.171051  0.009148888344534239
341.1382446 1.0
342.1096191 0.027249221528998044
342.1471558 0.2799188680221662
343.1168213 0.46070525872911233
343.1526184 0.034859439298386134
344.1242371 0.08053265640854879
344.1647644 0.006524525633295232
345.1328125 0.11549287789029859
346.1417236 0.02885778223511174
350.1511536 0.018526619883409343
351.1168823 0.0070049699242453935
351.1615906 0.049394648799332225
352.1283569 0.04299344036934624
353.1378784 0.042069304168419724
354.1474915 0.018904181131752844
355.1556091 0.05393189166203559
356.1616516 0.851919066014791
356.2147522 0.006732012201295502
357.1308594 0.4145219490573976
357.1704407 0.05698280051568079
358.0885925 0.009916125233710117
358.1406555 0.5157225043367134
359.1080627 0.10523899734734882
359.1596985 0.03744200559779148
366.1463928 0.009042738704858316
367.1538086 0.3214183921648919
368.1629944 0.00929245971525068
369.1325073 0.023795853291964875
369.1748657 0.010822096876891335
370.1794128 0.006865634723856536
371.1491699 0.019254119034065983
372.1560974 0.2636297897903303
373.1648865 0.0824297294925764
374.1337891 0.0913473454363825
382.177002  0.08868895133656271
383.1492615 0.04843668510847971
384.1587524 0.009620974899934978
385.1638184 0.05807767160673265
387.1796875 0.020738279061604956
389.1612244 0.005659802336425432
398.1714783 0.008501349809094684
400.1888428 0.03561335527751591
511.4191284 0.005517281395330488
561.2628784 0.004671270018629342


