PRECURSORMZ: 359.1347530439999
COMPOUNDNAME: casmi2022challengebonus1
FORMULA: C15H22O7
SMILES: C1=CC(=CC=C1CCCOC2C(C(C(C(O2)CO)O)O)O)O
INCHIKEY: UTQOLIYEFVSSCL-AICCOOGYSA-N
PRECURSORTYPE: [M+FA-H]-
PRECURSORINTENSITY: 100580065.6562
IONMODE: negative
CHARGE: -1
PARENTMASS: 314.1365520439999
NUM PEAKS: 24
52.88611984 0.012480555672812923
55.01765823 0.05070762131010151
57.03316879 0.019088643283379704
59.01247025 0.2833796295282278
67.04985809 0.009437939101181137
68.46714783 0.010158208806425323
71.01251221 0.2831358863093817
73.02796173 0.1406314743903607
75.00704956 0.012576250491319427
83.01248169 0.09710408266033689
83.44576263 0.010906948251022312
85.02806854 0.1826999162317801
87.00747681 0.022068955125860407
89.0230484  0.020504747392622064
95.01216888 0.01984239174694869
99.00715637 0.056830860773714104
101.0230484 0.3201658897481199
111.0071945 0.013210705745759171
113.0230484 0.13283237584950472
151.0752106 1.0
151.0864258 0.017740724055994684
221.2369995 0.012003742178961333
284.6943359 0.00951977433753515
313.1286316 0.02253522323473958


