PRECURSORMZ: 1409.6230564199998
COMPOUNDNAME: casmi2022challengebonus213
FORMULA: C64H100O31
SMILES: CC1C2C(C(C(O1)OC3C(C(COC3OC(=O)C45CCC(CC4C6=CCC7C(C6(CC5O)C)(CCC8C7(CC(C(C8(C)CO)OC9C(C(C(C(O9)CO)O)O)OC1C(C(C(C(O1)COC(=O)CC(CC(=O)O2)(C)O)O)O)O)O)C)C)(C)C)O)O)O)OC1C(C(C(CO1)O)O)O
INCHIKEY: MTICHQXHYUJVDV-FGZJIHLKSA-N
PRECURSORTYPE: [M+FA-H]-
PRECURSORINTENSITY: 7480523.357422
IONMODE: negative
CHARGE: -1
PARENTMASS: 1364.6248554199997
NUM PEAKS: 46
97.02809143 0.05425557530530781
99.00725555 0.06977743007190246
99.0435791  0.015879473929814873
101.0229492 0.49866542110066653
109.0280762 0.018311602234380345
111.0072479 0.013974178284218201
113.0229874 0.4854614703502759
115.0385818 0.0881142647304788
119.0335999 0.05253291121347424
125.0230103 0.213885661079911
127.0388794 0.059289949458876785
131.0337067 0.15081373710626278
143.0334778 0.1932064047144205
145.0487976 0.03519553187585137
159.029129  0.04607854133568516
161.0445709 0.1369162122735955
161.6316986 0.010102071898512125
187.0608826 0.011485015344957543
203.0558472 0.023613578915576174
205.0712738 0.08215939615803178
221.0664062 0.09898414010510341
221.3018036 0.01030866074254588
379.2997131 0.012367682391205765
391.2998962 0.10730360495656835
393.315979  0.10277440607705096
409.3113098 0.18997838843484946
421.3113403 0.18425729395811227
425.3055115 0.013807782566934174
437.305542  0.014354339675154865
441.3367615 0.4993100805242615
453.2997437 0.023063804820744292
455.3168945 0.12256718439893466
457.3323669 0.060784601222065304
471.3112793 0.02112003017409975
485.3272705 0.19263755917060404
501.3228149 0.012682320143971743
503.3373718 1.0
514.2005005 0.014458663327109893
603.3895264 0.042845866255887426
604.4832764 0.011133347949930424
647.3795776 0.20984566366118262
665.388916  0.3019076168146142
809.4334106 0.14680686161706133
827.4428101 0.20515431219426966
869.4638672 0.08682494588328876
993.1363525 0.011528105131506572


