PRECURSORMZ: 1080.5796482520004
COMPOUNDNAME: casmi2022challengebonus24
FORMULA: C48H86O25
SMILES: CCCCCC(CC(CC(=O)OC(CCCCC)CC(CC(=O)OC(CCCCC)CC(CC(=O)O)OC1C(C(C(C(O1)CO)O)O)O)OC2C(C(C(C(O2)CO)O)O)O)OC3C(C(C(C(O3)CO)O)O)O)O
INCHIKEY: QOPHHVLUTLSYGH-UHFFFAOYSA-N
PRECURSORTYPE: [M+NH4]+
PRECURSORINTENSITY: 2636291.125
IONMODE: positive
CHARGE: 1
PARENTMASS: 1062.5458252520004
NUM PEAKS: 32
79.05435181 0.022544413122824333
81.03388977 0.0034975099275608135
81.06986237 0.08333858315221075
83.04923248 0.01599672741235922
83.08542633 0.025344419349032882
85.02827454 0.014567046057664991
85.06478119 0.014277256055631586
89.02316284 0.0086276249113547
91.05430603 0.048523690769512476
93.06983185 0.028903356827690643
95.04924774 0.01497663826767565
105.0699005 0.045367427810698614
106.7763901 0.0036377875069056194
107.0854568 0.1411980287474257
109.0645905 0.007362804873842944
109.0783768 0.004564044880870227
109.1011124 1.0
109.119194  0.0070082366094441
113.0596542 0.018122205678522917
123.0800552 0.004283045331718504
123.1168518 0.06904112870584715
127.0755539 0.006785529090005133
127.1116486 0.9129449129530981
127.1341171 0.0053243646289828075
133.101059  0.3013920174488345
151.1116333 0.24235638633798784
169.1222229 0.10848602795576835
187.1322937 0.020590734700426022
204.0393066 0.00409265832698837
218.906723  0.003917284319353549
221.1128235 0.00536279344686492
251.2349701 0.0036298894274334843


PRECURSORMZ: 1080.5796482520004
COMPOUNDNAME: casmi2022challengebonus24
FORMULA: C48H86O25
SMILES: CCCCCC(CC(CC(=O)OC(CCCCC)CC(CC(=O)OC(CCCCC)CC(CC(=O)O)OC1C(C(C(C(O1)CO)O)O)O)OC2C(C(C(C(O2)CO)O)O)O)OC3C(C(C(C(O3)CO)O)O)O)O
INCHIKEY: QOPHHVLUTLSYGH-UHFFFAOYSA-N
PRECURSORTYPE: [M+NH4]+
PRECURSORINTENSITY: 2636291.125
IONMODE: positive
CHARGE: 1
PARENTMASS: 1062.5458252520004
NUM PEAKS: 32
79.05435181 0.022544413122824333
81.03388977 0.0034975099275608135
81.06986237 0.08333858315221075
83.04923248 0.01599672741235922
83.08542633 0.025344419349032882
85.02827454 0.014567046057664991
85.06478119 0.014277256055631586
89.02316284 0.0086276249113547
91.05430603 0.048523690769512476
93.06983185 0.028903356827690643
95.04924774 0.01497663826767565
105.0699005 0.045367427810698614
106.7763901 0.0036377875069056194
107.0854568 0.1411980287474257
109.0645905 0.007362804873842944
109.0783768 0.004564044880870227
109.1011124 1.0
109.119194  0.0070082366094441
113.0596542 0.018122205678522917
123.0800552 0.004283045331718504
123.1168518 0.06904112870584715
127.0755539 0.006785529090005133
127.1116486 0.9129449129530981
127.1341171 0.0053243646289828075
133.101059  0.3013920174488345
151.1116333 0.24235638633798784
169.1222229 0.10848602795576835
187.1322937 0.020590734700426022
204.0393066 0.00409265832698837
218.906723  0.003917284319353549
221.1128235 0.00536279344686492
251.2349701 0.0036298894274334843


