PRECURSORMZ: 434.2020770959998
COMPOUNDNAME: casmi2022challengebonus23
FORMULA: C19H28O10
SMILES: C1=CC=C(C=C1)CCOC2C(C(C(C(O2)COC3C(C(C(O3)CO)O)O)O)O)O
INCHIKEY: DWYFWLYCTOAXKY-XSNZJGGGSA-N
PRECURSORTYPE: [M+NH4]+
PRECURSORINTENSITY: 19073285.62109
IONMODE: positive
CHARGE: 1
PARENTMASS: 416.1682540959998
NUM PEAKS: 59
53.03908539 0.0032839905982185004
54.85060883 0.0028183758747052116
55.01812363 0.04594996273810184
57.03375244 0.09722436917226969
59.04940796 0.004852272741843895
61.02855301 0.06657837450166508
66.77185059 0.0022858522164827563
69.03356171 0.11705433263825807
71.01287842 0.010859270782361269
71.04910278 0.017361828213646378
72.04454041 0.009689652864959259
73.02841187 0.20323549934326518
77.02370453 0.003320786697076799
81.03352356 0.02169921219376929
85.01587677 0.010219091940255247
85.02840424 1.0
85.0406189  0.0035853237856517083
87.04407501 0.03987203847300534
91.03894806 0.06611591555031933
94.63820648 0.002568660428759005
97.01806641 0.0034549272626358705
97.02257538 0.0031962641390187786
97.02841187 0.3203869835552205
99.04405212 0.04249706458197923
103.0386963 0.03199988274151538
105.0698624 0.09204007364640385
109.0283813 0.0707379610075434
114.0548401 0.0037624430438327823
115.0389404 0.17123907460847998
117.0544128 0.0026752840080707012
119.0856018 0.004952216894694133
127.0300293 0.005020421303078425
127.0388489 0.3392337613640878
129.0693665 0.0034729217287474373
132.0655518 0.0396611784985152
133.040741  0.0031851792921243766
133.0494232 0.22946315038899917
133.0612793 0.005017681583002681
144.0651855 0.0028415999792001235
145.0494385 0.4676071390064687
147.0803223 0.01239095462238512
150.075943  0.02746471714568949
163.0600433 0.06712589905446774
167.0857239 0.003214474943692443
169.0490112 0.003406745574310647
171.0800934 0.004247271615638626
173.0949249 0.0027651706557695974
183.0809021 0.004059782600095858
189.091629  0.0038617997788730875
193.0491638 0.005180937269329808
199.0605927 0.003799642193154942
201.0915375 0.012321166146815261
211.059433  0.0029083667485684753
215.6487274 0.017396730550806046
218.3353729 0.002221900619260118
231.1006622 0.0034336033140827606
241.0713196 0.009574475493358662
304.2364502 0.0031694422070087506
374.0349426 0.0026057329720655695


