PRECURSORMZ: 357.09797691599994
COMPOUNDNAME: casmi2022challengebonus198
FORMULA: C19H18O7
SMILES: COC1=C(C=C(C=C1)C=CC(=O)OCC(=O)CC2=CC(=C(C=C2)O)O)O
INCHIKEY: BZBZUGSXRITWQR-UHFFFAOYSA-N
PRECURSORTYPE: [M-H]-
PRECURSORINTENSITY: 20118960.67188
IONMODE: negative
CHARGE: -1
PARENTMASS: 358.1052529159999
NUM PEAKS: 42
57.32538605 0.0020261973324293883
68.51589203 0.0013394869612690246
89.03814697 0.003400801806651432
91.05344391 0.0020791795258192068
93.03321075 0.04469227297327621
105.0332794 0.0026966057464181225
106.0410538 0.01652044482699941
107.0487823 0.02623342359713143
109.0281982 0.006641792613112231
111.006424  0.0017777483116247928
112.5501404 0.001536140451274075
117.0331879 0.0783719931344722
121.0280533 0.09822222491253546
122.0358963 0.017060293713431398
123.0434189 0.0016982162079417639
126.9374084 0.0015644997955551402
133.0281982 0.043505013588165865
134.0034485 0.005727421397004636
134.0359344 1.0
134.0607605 0.012313032703333969
135.011734  0.0020320054250355774
135.0437622 0.3075185577617261
135.0686646 0.0016555201998427053
137.0232239 0.031685097538442966
139.0386963 0.011383377678031574
145.0150909 0.0031517960881633075
145.0282135 0.10665491890240222
146.960083  0.0016927532705635756
147.0444031 0.0072485283465611484
149.0595093 0.00965201298045821
150.0310211 0.005830600297169726
160.0154877 0.002187399743795963
161.0232544 0.008234343364545135
162.030838  0.014024545446949884
163.0388489 0.04362066390185828
166.4469452 0.0014366464927987462
178.0254059 0.017175608330028225
193.0496521 0.009533547073983122
217.6878967 0.003976286804763855
219.0294189 0.009067847814588463
236.3207855 0.0014621921092809781
359.242157  0.0014403023940254493


