PRECURSORMZ: 275.091399548
COMPOUNDNAME: casmi2022challengebonus218
FORMULA: C15H14O5
SMILES: CC1(CCC2=C(O1)C(=O)C3=C(C=CC=C3O)C(=O)O2)C
INCHIKEY: RFRQCFZIUNGRQV-UHFFFAOYSA-N
PRECURSORTYPE: [M+H]+
PRECURSORINTENSITY: 76532452.98047
IONMODE: positive
CHARGE: 1
PARENTMASS: 274.08412354800004
NUM PEAKS: 35
64.26781464 0.014317999489148286
64.2720871  0.004179791368586279
64.34474182 0.0005086317771824247
68.77065277 0.0005911469874287364
75.95917511 0.0005325225801376692
77.73043823 0.0004728715305698879
128.5764771 0.0004893672779267693
142.1374054 0.0005394107280520508
149.023819  0.0026577809258297455
165.0185242 0.002253069434222954
167.0863037 0.0006279192869332253
175.0394897 0.0006206308611335594
183.0806732 0.0027105065706985684
187.0755615 0.002589401556518548
199.0400696 0.0010341577681733367
201.0181885 0.007465946300160224
201.0918884 0.0047206678402302495
202.0270691 0.001801243629706704
202.2128296 0.0006035146243052868
203.0337372 0.006249349058859743
211.075592  0.01356460757664781
215.0342865 0.007068647390996577
215.0702362 0.000751189258105071
217.5981445 0.0012606960556695516
221.0599976 0.003971505870157437
229.0860138 0.008941313402763712
239.0699921 0.01739153362296637
256.9957581 0.0026473466761801727
257.0185547 0.0049410603738742715
257.0296326 0.005898427551802068
257.0806274 1.0
257.1315002 0.005959472279275964
257.1460876 0.009313978380544922
260.0305786 0.0012493931990922983
275.0911255 0.06315980208632041


