PRECURSORMZ: 273.112134992
COMPOUNDNAME: casmi2022challengebonus58
FORMULA: C16H16O4
SMILES: CC1CC2=C(C(O1)C)C(=O)C3=C(C2=O)C=CC=C3OC
INCHIKEY: IAJIIJBMBCZPSW-BDAKNGLRSA-N
PRECURSORTYPE: [M+H]+
PRECURSORINTENSITY: 13306014.43555
IONMODE: positive
CHARGE: 1
PARENTMASS: 272.104858992
NUM PEAKS: 93
53.03896713 0.009893935957265954
55.01806641 0.039325119300233004
55.05437851 0.007907942693442528
61.0710907  0.005994624121892048
64.07723999 0.007467017326970698
65.03889465 0.008079217540443542
67.05431366 0.011946290909442174
69.03350067 0.010327074795247556
79.05440521 0.010685169406003352
91.05458832 0.04656258848822028
93.0329895  0.008147744107559435
95.04901886 0.02733448962716472
102.3516235 0.006557622429016777
103.0538177 0.008213054374734883
105.0335541 0.2096172814634129
105.0420837 0.007984290964330898
105.0449371 0.007614206059026545
105.0696182 0.03104372446760534
107.0493622 0.013171714617339307
115.0541992 0.13702777732980811
117.0697861 0.03345853704469421
121.0284958 0.05579182032594527
127.0541153 0.008218490554789433
128.0620575 0.18415921793174617
129.0699005 0.10804392765027106
130.0775146 0.060723558686267706
131.0489502 0.05800501329896856
131.0845337 0.023570703679202568
133.0284576 0.026112533562591928
133.0646057 0.010473767875592744
135.0440979 0.08772640807347386
139.0545349 0.011013566484896627
140.0620117 0.06375639458499367
141.0697479 0.28219632766569397
142.0776978 0.06608182101277145
143.0490875 0.025743367051941496
143.0852203 0.09393325171098715
144.0570068 0.10192169911463277
145.0281067 0.030554516868540896
145.0647736 0.10271554001114476
145.1008759 0.024237077025795438
151.0539398 0.00785917440239772
152.0618896 0.12761121856470684
153.0698395 0.20977451881441195
154.0773926 0.013484294970475888
155.048172  0.015531194556079849
155.0603943 0.031584605196515375
155.0851746 0.09547725987300347
157.0648651 0.07258030995425607
158.0725861 1.0
158.0848236 0.015902893687085105
159.0805206 0.08661274071558774
161.059433  0.025408818135878447
161.0953674 0.011136534156831772
163.0387573 0.27275404361747335
165.0699005 0.08307644035594132
168.0569305 0.46262294413647326
169.0639496 0.23996673027108187
170.0724945 0.19235745839605706
171.0438995 0.13625730817022713
171.0796814 0.0568592098028023
172.0517426 0.1599529237551726
172.0879974 0.013662279342765473
173.0600891 0.05118848863777484
173.095993  0.2610062666544091
181.0639801 0.09000409844486673
182.0721283 0.008602385276084066
183.080307  0.24712194046158484
184.0518799 0.007488619427406493
185.059082  0.11192416808691241
186.0389252 0.009054447137060526
186.0674286 0.6457760722367587
187.0754547 0.1958994226157697
193.0647736 0.010173110664192084
196.0518951 0.33628055302032017
197.0594635 0.4032738359585674
198.0673218 0.2947887411916999
199.0392761 0.11939527533993598
199.0749207 0.00998819164480461
200.0453033 0.009526233377926619
200.0817719 0.01321782365701142
201.0558624 0.011591303235475333
201.0908508 0.546304977508694
201.1069946 0.011172988540727
211.0751801 0.3890916122151585
212.0836487 0.05535194765975237
213.0545654 0.15075863184553467
214.0622559 0.634255279454344
214.0812225 0.013190031346370173
221.1423798 0.010397069770528771
228.0794067 0.00894139889484832
229.0861053 0.12705143272021885
250.5985718 0.007057982511350912


