PRECURSORMZ: 1080.5796482520004
COMPOUNDNAME: casmi2022challengebonus174
FORMULA: C48H86O25
SMILES: CCCCCC(CC(CC(=O)OC(CCCCC)CC(CC(=O)OC(CCCCC)CC(CC(=O)O)OC1C(C(C(C(O1)CO)O)O)O)OC2C(C(C(C(O2)CO)O)O)O)O)OC3C(C(C(C(O3)CO)O)O)O
INCHIKEY: ZIPCQERYPWBFTF-UHFFFAOYSA-N
PRECURSORTYPE: [M+NH4]+
PRECURSORINTENSITY: 1760937.0625
IONMODE: positive
CHARGE: 1
PARENTMASS: 1062.5458252520004
NUM PEAKS: 34
81.06999207 0.01987510639065354
89.02333832 0.005891212626255935
91.05422211 0.015801505885112276
93.07002258 0.00434493758906643
99.04405212 0.004023751315554135
105.0698547 0.015648594388369796
107.0856171 0.05709996596741152
109.080452  0.004105150661611986
109.0924759 0.008524397474136062
109.10112   0.5342474657728213
109.1097107 0.01080859917756648
113.0588989 0.004954548642924699
123.1169052 0.03449586912378919
124.8455505 0.0047753055241215705
127.075737  0.005088343170188446
127.0845795 0.004176199463727968
127.0878372 0.003315269520918863
127.111618  1.0
127.1340027 0.0073359957282787625
133.1010132 0.16921061473122537
145.049057  0.004095843258426833
146.0617676 0.003984844591240459
151.111618  0.2618488110537185
159.7131348 0.004115944742534359
163.0593262 0.004483600106527799
169.1221313 0.27929431647491937
187.1326599 0.25232035906450956
215.8382874 0.011898067513337711
215.8621521 0.01728318625037883
297.6712036 0.004332964112180023
524.8630371 0.003940582673391318
722.2998657 0.004233877465525485
790.574707  0.004740482412847426
919.371521  0.00463329201805905


PRECURSORMZ: 1080.5796482520004
COMPOUNDNAME: casmi2022challengebonus174
FORMULA: C48H86O25
SMILES: CCCCCC(CC(CC(=O)OC(CCCCC)CC(CC(=O)OC(CCCCC)CC(CC(=O)O)OC1C(C(C(C(O1)CO)O)O)O)OC2C(C(C(C(O2)CO)O)O)O)O)OC3C(C(C(C(O3)CO)O)O)O
INCHIKEY: ZIPCQERYPWBFTF-UHFFFAOYSA-N
PRECURSORTYPE: [M+NH4]+
PRECURSORINTENSITY: 1760937.0625
IONMODE: positive
CHARGE: 1
PARENTMASS: 1062.5458252520004
NUM PEAKS: 34
81.06999207 0.01987510639065354
89.02333832 0.005891212626255935
91.05422211 0.015801505885112276
93.07002258 0.00434493758906643
99.04405212 0.004023751315554135
105.0698547 0.015648594388369796
107.0856171 0.05709996596741152
109.080452  0.004105150661611986
109.0924759 0.008524397474136062
109.10112   0.5342474657728213
109.1097107 0.01080859917756648
113.0588989 0.004954548642924699
123.1169052 0.03449586912378919
124.8455505 0.0047753055241215705
127.075737  0.005088343170188446
127.0845795 0.004176199463727968
127.0878372 0.003315269520918863
127.111618  1.0
127.1340027 0.0073359957282787625
133.1010132 0.16921061473122537
145.049057  0.004095843258426833
146.0617676 0.003984844591240459
151.111618  0.2618488110537185
159.7131348 0.004115944742534359
163.0593262 0.004483600106527799
169.1221313 0.27929431647491937
187.1326599 0.25232035906450956
215.8382874 0.011898067513337711
215.8621521 0.01728318625037883
297.6712036 0.004332964112180023
524.8630371 0.003940582673391318
722.2998657 0.004233877465525485
790.574707  0.004740482412847426
919.371521  0.00463329201805905


