PRECURSORMZ: 227.09249761200002
COMPOUNDNAME: casmi2022challengebonus26
FORMULA: C11H16O5
SMILES: 
CC1C(=O)C(O)(C(O)C=1O)C(=O)CC(C)C
INCHIKEY: HBRRDZNNYPXQDQ-UHFFFAOYSA-N
PRECURSORTYPE: [M-H]-
PRECURSORINTENSITY: 116692504.0977
IONMODE: negative
CHARGE: -1
PARENTMASS: 228.099773612
NUM PEAKS: 75
53.50858307 0.00473975594394002
55.01761246 0.06366871035176365
56.62020874 0.004970279037331313
57.03324509 0.15029599513736996
58.00457001 0.00558644871927453
59.01251602 0.14437813290546717
59.796978   0.004929490407883539
63.02272034 0.04772280613160215
68.68391418 0.004338741404226447
68.99669647 0.007599102251741498
69.03311157 0.0478345345575991
71.04886627 0.1454775116419571
72.98738861 0.0075728931055144035
72.99172211 0.1480817195440411
73.02809906 0.05238122138891197
79.01763916 0.05818139688956877
80.02536011 0.006564595328843764
81.03317261 0.12312189933467768
82.00456238 0.007195990763524986
83.01235962 0.008020034454512256
83.04881287 0.20495029467492384
84.02030182 0.016107671187415146
85.02809906 0.27847837290273775
85.0644989  0.07091003052937665
87.00704193 0.024531546614433825
87.04389191 0.047488861029957544
95.0488205  0.048548939437989796
95.86802673 0.004728619830619257
97.02149963 0.006726651794233438
97.02805328 0.12146871448992907
97.0644989  0.10979296644102918
99.04385376 0.08012642687127106
99.08017731 0.12348544777806635
101.0593796 0.3154253340283057
101.0671082 0.008422221334144534
108.0201797 0.009373711159399684
109.027832  0.019687536270162946
109.0644989 0.07380064008522498
110.0365829 0.0038715755839384006
111.007164  0.008174324207794344
111.0438843 0.01995605790689144
112.0515442 0.03023399672668666
113.0230713 0.09037909390664527
113.0588989 0.019351426383587857
113.0958939 0.05483553302264172
115.0750885 0.20422164699636935
122.0359802 0.14710329236359113
123.0074234 0.036701374883017245
123.0438004 0.1510224390591885
124.0153503 0.021854066351524013
125.023056  0.7926554664675559
125.0499802 0.0091034703883656
125.0593262 0.11340705606993777
125.0956802 0.023720474863052843
127.0750504 1.0
127.1025009 0.00563872098733852
127.1119537 0.017776598609217285
129.0543518 0.017144065587146907
137.0227966 0.03065887541395938
137.095932  0.03266445218362093
138.0311279 0.04808467625099516
141.0182495 0.009851203901082012
141.0907288 0.0692742614843885
143.0699005 0.017322544376314804
153.0186462 0.006007732910968391
153.090683  0.021023952764596503
165.0909729 0.1978908252383363
166.026001  0.018563486426001197
169.0855103 0.009016347390947914
170.0211792 0.006509045482763928
181.0860748 0.12334100988866457
209.0815887 0.02977267443265099
220.7684479 0.005734061523256245
223.5023956 0.004596018844078988
225.463974  0.004842879133492646


