PRECURSORMZ: 279.12379774000004
COMPOUNDNAME: casmi2022challengebonus98
FORMULA: C15H20O5
SMILES: CC1(CC2C(C1)C(CC3=C(C2O)C(=O)OC3=O)(C)O)C
INCHIKEY: MRKJHJBMSPPNKC-UHFFFAOYSA-N
PRECURSORTYPE: [M-H]-
PRECURSORINTENSITY: 20617888.05859
IONMODE: negative
CHARGE: -1
PARENTMASS: 280.13107374000003
NUM PEAKS: 36
58.78195953 0.012061535646135622
58.78572083 0.006342149614161759
65.9200592  0.0014912654036583098
69.03321075 0.002813010424848664
77.7562561  0.001330205887187149
93.03295135 0.003040810650596923
95.04885864 0.009044411569095233
119.026062  0.0018704524741259912
121.371788  0.0014826950737264221
126.4209137 0.0014530041293007953
133.0652008 0.002191940052730976
135.0801086 0.012077268827905854
137.0956726 0.0026452041379920244
149.0959167 0.08225078488396564
151.1116791 0.025268452139123068
163.1119537 0.006383817009205498
170.9793549 0.001458351272186224
173.1328278 0.03224300230924288
175.0975952 0.0017895398143042615
175.1117249 0.10541454091160982
185.852951  0.0015926229344395413
189.1275787 0.029816750630057228
191.0954895 0.002280312405698079
191.1017914 0.003191130555229234
191.1432037 0.509339506785643
191.1842499 0.0024076571782897347
191.1992035 0.0019659613127874296
205.1226807 0.0019794393004959688
220.5813904 0.001806356822343709
235.0657501 0.004726358837830994
235.0763245 0.006655023314259903
235.133316  1.0
235.1756897 0.003469767076672521
235.1891022 0.009260982483722716
235.2134857 0.0023439177657007546
279.1231995 0.05213451959762188


PRECURSORMZ: 279.12379774000004
COMPOUNDNAME: casmi2022challengebonus98
FORMULA: C15H20O5
SMILES: CC1(CC2C(C1)C(CC3=C(C2O)C(=O)OC3=O)(C)O)C
INCHIKEY: MRKJHJBMSPPNKC-UHFFFAOYSA-N
PRECURSORTYPE: [M-H]-
PRECURSORINTENSITY: 20617888.05859
IONMODE: negative
CHARGE: -1
PARENTMASS: 280.13107374000003
NUM PEAKS: 36
58.78195953 0.012061535646135622
58.78572083 0.006342149614161759
65.9200592  0.0014912654036583098
69.03321075 0.002813010424848664
77.7562561  0.001330205887187149
93.03295135 0.003040810650596923
95.04885864 0.009044411569095233
119.026062  0.0018704524741259912
121.371788  0.0014826950737264221
126.4209137 0.0014530041293007953
133.0652008 0.002191940052730976
135.0801086 0.012077268827905854
137.0956726 0.0026452041379920244
149.0959167 0.08225078488396564
151.1116791 0.025268452139123068
163.1119537 0.006383817009205498
170.9793549 0.001458351272186224
173.1328278 0.03224300230924288
175.0975952 0.0017895398143042615
175.1117249 0.10541454091160982
185.852951  0.0015926229344395413
189.1275787 0.029816750630057228
191.0954895 0.002280312405698079
191.1017914 0.003191130555229234
191.1432037 0.509339506785643
191.1842499 0.0024076571782897347
191.1992035 0.0019659613127874296
205.1226807 0.0019794393004959688
220.5813904 0.001806356822343709
235.0657501 0.004726358837830994
235.0763245 0.006655023314259903
235.133316  1.0
235.1756897 0.003469767076672521
235.1891022 0.009260982483722716
235.2134857 0.0023439177657007546
279.1231995 0.05213451959762188


