PRECURSORMZ: 808.3415794519999
COMPOUNDNAME: casmi2022challengebonus113
FORMULA: C43H51N3O11
SMILES: CC1C=CC=C(C(=O)NC2=C(C3=C(C4=C(C(=C3O)C)OC(C4=O)(OC=CC(C(C(C(C(C(C1O)C)O)C)OC(=O)C)C)OC)C)C5=C2N6C=CC(=CC6=N5)C)O)C
INCHIKEY: NZCRJKRKKOLAOJ-XWSQLESMSA-N
PRECURSORTYPE: [M+Na]+
PRECURSORINTENSITY: 30801563.42187
IONMODE: positive
CHARGE: 1
PARENTMASS: 785.3523614519999
NUM PEAKS: 74
59.04957962 0.0279086218959448
65.03865051 0.031540731629597744
67.05435181 0.33919385974239746
69.03364563 0.02856449388068087
69.06995392 0.13940890148284737
77.03863525 0.01717639487298561
79.05432892 0.15528130547708963
81.06997681 0.12246023278638003
82.53218079 0.015003342196285855
83.04904175 0.020423310070148422
83.28977203 0.01823475448471844
87.04427338 0.02796917607635372
91.04995728 0.012946814971419803
91.05436707 0.19986941207576642
93.06998444 0.13945003311825377
95.01039124 0.015640038181468426
95.04912567 0.11420336025126725
95.07911682 0.028181281525963126
95.08554077 0.4575973944413697
97.06505585 0.026157887391234622
105.0449219 0.020288403891469874
105.0697403 0.18277299938273747
107.0852814 0.14369070211047094
109.064682  0.0818141217323259
109.1009903 0.026182967390651166
111.0803909 0.019619521725218626
113.7391586 0.01656200797819316
119.0605469 0.016288386166379266
119.0852051 0.06449396795359492
121.0650406 0.03222181234101986
121.1012421 0.0359148646187086
123.0803909 0.08553667873660094
131.0851288 0.024209794345662967
135.0807495 0.018616847566735185
220.5728302 0.022509542748868825
221.1086426 0.024664699062348822
245.1058807 0.022982098374234802
248.0932007 0.028661100423887118
249.1011658 0.07524409133977387
263.0806274 0.029772138943484766
263.1179504 0.03552604062775783
273.1017456 0.07522322443116859
276.0887451 0.10328871032346275
277.0969849 0.2791659687757738
279.0777588 0.021000479511261567
287.0799866 0.02721520082117351
291.1128845 0.3501241751243828
301.0966187 0.20023827897627278
303.1120605 0.020742462062720884
304.0841675 0.06761640715365452
305.0915222 0.18338090627768072
313.081665  0.07311114593486788
319.1073303 0.3304659937637005
327.0971069 0.0170101556041274
329.0911255 0.24439339067593563
332.0787659 0.10133312055079283
340.0681763 0.08789448231809205
345.0855408 0.026990855371849407
346.0948486 0.06939239838504964
347.1024475 1.0
347.1505127 0.023113153643912285
348.1091614 0.023267336185778358
354.0856934 0.15193945828213623
355.0925903 0.06424294541398236
356.0743408 0.030470438563597067
360.0986938 0.02357221472413755
362.1130066 0.09648856793626606
368.0664368 0.03303878977655202
369.0822144 0.10417459830284571
370.0945435 0.02127388532308071
382.0794983 0.652597721539544
383.0873718 0.6618722289600645
384.0896912 0.049834859931115985
385.1064453 0.03259244433239402


