PRECURSORMZ: 256.05957824
COMPOUNDNAME: casmi2022challengebonus236
FORMULA: C9H10ClN5O2
SMILES: C1CN(C(=N1)N[N+](=O)[O-])CC2=CN=C(C=C2)Cl
INCHIKEY: YWTYJOPNNQFBPC-UHFFFAOYSA-N
PRECURSORTYPE: [M+H]+
PRECURSORINTENSITY: 43144707.51953
IONMODE: positive
CHARGE: 1
PARENTMASS: 255.05230224000002
NUM PEAKS: 33
56.04967117 0.0024567838092715935
60.94485092 0.001444562898029704
62.15768051 0.0013125258262908991
64.0803833  0.0014933950273757356
70.64990997 0.001385826541080332
83.84403992 0.001467010884662117
84.05563354 0.0229989068808528
99.05513763 0.005417872056069795
109.0795288 0.0014385306989369731
126.0112228 0.0023227052464816354
128.0263367 0.01599078366217162
136.1112671 0.0014039776903188369
151.0194702 0.0014407893822348287
173.0821228 0.0014730219013446505
174.090271  0.012166710967501257
175.0978851 0.10849937371563793
192.0801849 0.01631780409407681
193.084198  0.15939191435763772
193.1048279 0.0028545627765761477
194.0962219 0.10892044056664658
195.0589142 0.005539026737127558
195.0669098 0.003947558601526556
195.0997314 1.0
195.1429443 0.005754891746254031
195.1526031 0.006260279678569264
209.0588074 0.11127399320573207
209.0817566 0.0028298104048704435
210.0670013 0.005562370333472095
212.0585632 0.009317200921175082
221.0787201 0.014738914828075248
238.1054993 0.14947127589969228
238.1340637 0.002062721919696424
399.5697632 0.001501437234074267


