PRECURSORMZ: 291.063399672
COMPOUNDNAME: casmi2022challengebonus100
FORMULA: C9H11FN2O5
SMILES: C1=CN(C(=O)NC1=O)C2C(C(C(O2)CO)O)F
INCHIKEY: UIYWFOZZIZEEKJ-XVFCMESISA-N
PRECURSORTYPE: [M+FA-H]-
PRECURSORINTENSITY: 12136535.47266
IONMODE: negative
CHARGE: -1
PARENTMASS: 246.065198672
NUM PEAKS: 45
50.00230026 0.008320851758779285
58.00486755 0.01444252610441701
59.01251221 0.3709562492444666
64.01806641 0.030346272440304016
65.9972229  0.1533182130951335
66.03356171 0.22417729010320164
67.01750183 0.007201475958580394
68.01282501 0.013250188300205383
71.01230621 0.07714377579387274
72.99185181 0.007905303567819972
80.04916382 0.12284668487568444
82.02841949 0.009320154457178216
87.46980286 0.0076924941848917515
89.0230484  0.014442277784482238
92.01291656 0.054508788949254094
94.02835846 0.8396845476842458
95.02354431 0.040193548439189694
96.04415131 0.01236506951599627
106.0281448 0.07950799304381206
107.0364227 0.009615402053236185
108.0373917 0.015458471845659
108.0439911 1.0
108.0615616 0.013347068320113014
109.4807205 0.008144353959579754
110.0233154 0.037784088899228685
111.0185318 0.4236428056351233
112.0191422 0.10745734690188488
120.0435257 0.022695916546251256
121.0396805 0.015495562833569133
122.0232925 0.11355930144058629
123.0186386 0.01778194700361723
124.0390244 0.06200086731905109
125.0342255 0.055337370090545075
134.0233459 0.13222559102835904
135.0186615 0.032543900657466596
149.0344238 0.10258761034889316
152.0338287 0.28421647479663525
152.0476837 0.011285623561282526
153.0296783 0.038211154328961744
165.0300293 0.029046399287894046
168.8720398 0.0075683462330679765
175.0237274 0.009484395665024752
182.0446472 0.10268050443333429
203.7581177 0.008978451808579046
205.0218048 0.07394422310042106


