PRECURSORMZ: 385.0928915359999
COMPOUNDNAME: casmi2022challengebonus209
FORMULA: C20H18O8
SMILES: COC1=C(C=CC(=C1)C=CC(=O)O)OC(=CC2=CC(=C(C=C2)O)OC)C(=O)O
INCHIKEY: GGCXWTMEZZGUFT-UHFFFAOYSA-N
PRECURSORTYPE: [M-H]-
PRECURSORINTENSITY: 19293611.21191
IONMODE: negative
CHARGE: -1
PARENTMASS: 386.1001675359999
NUM PEAKS: 41
57.07230759 0.0024738588936664505
57.07599258 0.00212600938911143
63.71976089 0.002804315245967751
64.29351044 0.002235592804771091
66.35489655 0.002457008549914709
93.0332489  0.0199965368960104
106.0410385 0.023586615790653468
108.0197601 0.00306323513897598
111.0074768 0.008729326127413402
112.0010147 0.0024302482095424982
119.3108902 0.0023207600526177377
121.0280762 0.07909050832957201
122.7699966 0.002414926519055721
132.0208282 0.0029438571774317974
133.0282288 0.08871417002083837
134.0114288 0.01348429914839128
134.0359802 1.0
134.066925  0.011279875191729941
135.0430756 0.0033795395115406492
137.0231476 0.1425401500221787
139.0388184 0.04639200923247089
148.0156097 0.010213995037431351
149.0232849 0.025967462725242772
149.0593414 0.03271525703275333
149.5372009 0.002138810405193478
150.0308838 0.01826861090951417
152.8177338 0.002571859702349848
153.0541229 0.002895597581980019
166.2636871 0.0024804025273627555
167.0857239 0.00381255222554201
169.0647278 0.0025964497589259644
178.0261078 0.1853391803135328
193.0495148 0.011331997160675863
193.066452  0.004742053465971397
195.0814972 0.0028252709798864514
211.0755157 0.005600544189349868
213.0548248 0.0027903578221011305
221.0610657 0.005561353177952264
239.0715332 0.032464207269141704
283.0603638 0.010360348562324956
387.9871826 0.002499313167892534


PRECURSORMZ: 385.0928915359999
COMPOUNDNAME: casmi2022challengebonus209
FORMULA: C20H18O8
SMILES: COC1=C(C=CC(=C1)C=CC(=O)O)OC(=CC2=CC(=C(C=C2)O)OC)C(=O)O
INCHIKEY: GGCXWTMEZZGUFT-UHFFFAOYSA-N
PRECURSORTYPE: [M-H]-
PRECURSORINTENSITY: 19293611.21191
IONMODE: negative
CHARGE: -1
PARENTMASS: 386.1001675359999
NUM PEAKS: 41
57.07230759 0.0024738588936664505
57.07599258 0.00212600938911143
63.71976089 0.002804315245967751
64.29351044 0.002235592804771091
66.35489655 0.002457008549914709
93.0332489  0.0199965368960104
106.0410385 0.023586615790653468
108.0197601 0.00306323513897598
111.0074768 0.008729326127413402
112.0010147 0.0024302482095424982
119.3108902 0.0023207600526177377
121.0280762 0.07909050832957201
122.7699966 0.002414926519055721
132.0208282 0.0029438571774317974
133.0282288 0.08871417002083837
134.0114288 0.01348429914839128
134.0359802 1.0
134.066925  0.011279875191729941
135.0430756 0.0033795395115406492
137.0231476 0.1425401500221787
139.0388184 0.04639200923247089
148.0156097 0.010213995037431351
149.0232849 0.025967462725242772
149.0593414 0.03271525703275333
149.5372009 0.002138810405193478
150.0308838 0.01826861090951417
152.8177338 0.002571859702349848
153.0541229 0.002895597581980019
166.2636871 0.0024804025273627555
167.0857239 0.00381255222554201
169.0647278 0.0025964497589259644
178.0261078 0.1853391803135328
193.0495148 0.011331997160675863
193.066452  0.004742053465971397
195.0814972 0.0028252709798864514
211.0755157 0.005600544189349868
213.0548248 0.0027903578221011305
221.0610657 0.005561353177952264
239.0715332 0.032464207269141704
283.0603638 0.010360348562324956
387.9871826 0.002499313167892534


