PRECURSORMZ: 554.2748481119999
COMPOUNDNAME: casmi2022challengebonus72
FORMULA: C31H36O8
SMILES: CC1C(C(OC1C2=CC(=C(C=C2)OC)OC)C3=CC(=C(C=C3)OC(C)C(C4=CC5=C(C=C4)OCO5)O)OC)C
INCHIKEY: HVQJVSACIKTWQR-RYXVVOBLSA-N
PRECURSORTYPE: [M+NH4]+
PRECURSORINTENSITY: 12677587.58301
IONMODE: positive
CHARGE: 1
PARENTMASS: 536.2410251119999
NUM PEAKS: 53
59.04933548 0.02430773566149753
83.04921722 0.016286463720259204
87.66821289 0.016189142940594214
107.0492554 0.02444201548219996
131.0493469 0.018475030528215596
135.0440674 1.0
143.0852509 0.035398100243103435
145.064743  0.3464037851160587
147.0803528 0.20390639125066737
149.0232391 0.16189782089897994
149.0598907 0.1550034701687945
151.0394135 0.1111760058046769
151.0751038 0.023871219276398584
157.5886688 0.014388669981802828
159.0805206 0.029974776218547855
161.0591278 0.05462427737062151
161.0955811 0.06454306666142803
162.0678253 0.016475819342102464
163.0756531 0.24328659894883778
165.0916748 0.019989349301042132
171.0805206 0.1795382247533208
175.0595398 0.022049851051902363
175.075531  0.47054515114390133
177.0905457 0.08583531716772995
178.0825806 0.022540063951286434
178.0988007 0.45884735288329737
186.0674591 0.08690770605386913
187.0760956 0.017773109055656423
189.0907745 0.08627727894544288
191.1064301 0.021552578276734707
197.0596008 0.08619459083133865
201.0910034 0.8477564110741289
201.1124115 0.026608728964892147
203.1064148 0.13510711642707576
213.0062408 0.016627034626169997
215.4220123 0.11227641627194081
219.1014557 0.9980083841931409
223.1121521 0.02521366136697352
225.0541229 0.0302103472515974
225.0914764 0.10155450465413375
241.1221924 0.06782597135386503
251.1052704 0.025742659068608568
253.0487518 0.03544275565164251
253.0860596 0.033230528360306336
253.1213531 0.06102028298990526
259.1325073 0.072898047622911
263.1066284 0.02011514478015375
281.1172485 0.3054965713320601
291.1014404 0.0638386098523369
304.2428284 0.02277924930056603
309.1118469 0.1607030236264025
313.1407471 0.0174683331683507
323.1259155 0.018888916244301925


PRECURSORMZ: 554.2748481119999
COMPOUNDNAME: casmi2022challengebonus72
FORMULA: C31H36O8
SMILES: CC1C(C(OC1C2=CC(=C(C=C2)OC)OC)C3=CC(=C(C=C3)OC(C)C(C4=CC5=C(C=C4)OCO5)O)OC)C
INCHIKEY: HVQJVSACIKTWQR-RYXVVOBLSA-N
PRECURSORTYPE: [M+NH4]+
PRECURSORINTENSITY: 12677587.58301
IONMODE: positive
CHARGE: 1
PARENTMASS: 536.2410251119999
NUM PEAKS: 53
59.04933548 0.02430773566149753
83.04921722 0.016286463720259204
87.66821289 0.016189142940594214
107.0492554 0.02444201548219996
131.0493469 0.018475030528215596
135.0440674 1.0
143.0852509 0.035398100243103435
145.064743  0.3464037851160587
147.0803528 0.20390639125066737
149.0232391 0.16189782089897994
149.0598907 0.1550034701687945
151.0394135 0.1111760058046769
151.0751038 0.023871219276398584
157.5886688 0.014388669981802828
159.0805206 0.029974776218547855
161.0591278 0.05462427737062151
161.0955811 0.06454306666142803
162.0678253 0.016475819342102464
163.0756531 0.24328659894883778
165.0916748 0.019989349301042132
171.0805206 0.1795382247533208
175.0595398 0.022049851051902363
175.075531  0.47054515114390133
177.0905457 0.08583531716772995
178.0825806 0.022540063951286434
178.0988007 0.45884735288329737
186.0674591 0.08690770605386913
187.0760956 0.017773109055656423
189.0907745 0.08627727894544288
191.1064301 0.021552578276734707
197.0596008 0.08619459083133865
201.0910034 0.8477564110741289
201.1124115 0.026608728964892147
203.1064148 0.13510711642707576
213.0062408 0.016627034626169997
215.4220123 0.11227641627194081
219.1014557 0.9980083841931409
223.1121521 0.02521366136697352
225.0541229 0.0302103472515974
225.0914764 0.10155450465413375
241.1221924 0.06782597135386503
251.1052704 0.025742659068608568
253.0487518 0.03544275565164251
253.0860596 0.033230528360306336
253.1213531 0.06102028298990526
259.1325073 0.072898047622911
263.1066284 0.02011514478015375
281.1172485 0.3054965713320601
291.1014404 0.0638386098523369
304.2428284 0.02277924930056603
309.1118469 0.1607030236264025
313.1407471 0.0174683331683507
323.1259155 0.018888916244301925


