PRECURSORMZ: 297.123368372
COMPOUNDNAME: casmi2022challengebonus200
FORMULA: C17H16N2O3
SMILES: CC(=O)OC1CC2=CC=CC=C2N(C3=CC=CC=C13)C(=O)N
INCHIKEY: QIALRBLEEWJACW-INIZCTEOSA-N
PRECURSORTYPE: [M+H]+
PRECURSORINTENSITY: 7649192.96582
IONMODE: positive
CHARGE: 1
PARENTMASS: 296.116092372
NUM PEAKS: 24
53.68535233 0.0008438377006131666
57.78866196 0.0008555041338333859
68.73809052 0.000849378856713315
88.90231323 0.0009464328107956071
95.13543701 0.0009464105128886316
101.346138  0.0008796467087979818
167.0851898 0.0009689204603467523
179.0736084 0.0012837213014325374
192.0806427 0.1918136813952807
192.1321869 0.0008845546043397628
193.0880585 0.0167325042241155
193.1043243 0.001031664078022709
194.0377502 0.001586489013907072
194.0545654 0.007644839933809984
194.0624847 0.005031592886275006
194.0963287 1.0
194.129425  0.0065498965834854105
194.1391602 0.007526235262985116
194.148819  0.0062956358220072756
217.6678925 0.003726882270497623
220.0756989 0.007467209253333195
220.1166534 0.0007977072857860861
237.1020355 0.055838385685655155
238.0856781 0.0012044746241538931


