PRECURSORMZ: 1073.5537983920003
COMPOUNDNAME: casmi2022challengebonus75
FORMULA: C53H86O22
SMILES: CC1C(C(C(C(O1)OC2CCC3(C4CCC5=C(C4(CCC3C2(C)C)C)CCC6(C5CC(CC6)(C)C)C(=O)OC7C(C(C(C(O7)COC8C(C(C(C(O8)CO)O)O)O)O)O)O)C)O)O)OC9C(C(C(C(O9)CO)O)O)O
INCHIKEY: UDJCPBQDHIOJEZ-RJDNMXFMSA-N
PRECURSORTYPE: [M-H]-
PRECURSORINTENSITY: 1884856.707031
IONMODE: negative
CHARGE: -1
PARENTMASS: 1074.5610743920004
NUM PEAKS: 25
83.01235199 0.06956169082167246
85.02801514 0.2444074419917887
87.00695801 0.020564528986880992
89.02281952 0.09784396583375685
95.01230621 0.02984978276438521
97.02783966 0.025554975632009445
99.0070343  0.02604000491934992
101.0231018 0.3076382353247889
101.807045  0.017995314426377553
106.0772934 0.018241327121928635
113.0233002 0.1977568795999853
119.0329895 0.01902079743858664
125.0226898 0.06882603374610019
147.8573303 0.018752995854448926
157.3374786 0.017882510258993317
159.0280151 0.025386462586690847
161.0444336 0.02610368189607587
176.3587799 0.02115683374894554
221.2967072 0.025425135179643864
235.7777405 0.016822485632708075
395.9124146 0.016183992269610505
441.3374023 0.27154771326188815
587.3953247 1.0
754.1002197 0.018296435095958664
940.2948608 0.017463367541731438


PRECURSORMZ: 1073.5537983920003
COMPOUNDNAME: casmi2022challengebonus75
FORMULA: C53H86O22
SMILES: CC1C(C(C(C(O1)OC2CCC3(C4CCC5=C(C4(CCC3C2(C)C)C)CCC6(C5CC(CC6)(C)C)C(=O)OC7C(C(C(C(O7)COC8C(C(C(C(O8)CO)O)O)O)O)O)O)C)O)O)OC9C(C(C(C(O9)CO)O)O)O
INCHIKEY: UDJCPBQDHIOJEZ-RJDNMXFMSA-N
PRECURSORTYPE: [M-H]-
PRECURSORINTENSITY: 1884856.707031
IONMODE: negative
CHARGE: -1
PARENTMASS: 1074.5610743920004
NUM PEAKS: 25
83.01235199 0.06956169082167246
85.02801514 0.2444074419917887
87.00695801 0.020564528986880992
89.02281952 0.09784396583375685
95.01230621 0.02984978276438521
97.02783966 0.025554975632009445
99.0070343  0.02604000491934992
101.0231018 0.3076382353247889
101.807045  0.017995314426377553
106.0772934 0.018241327121928635
113.0233002 0.1977568795999853
119.0329895 0.01902079743858664
125.0226898 0.06882603374610019
147.8573303 0.018752995854448926
157.3374786 0.017882510258993317
159.0280151 0.025386462586690847
161.0444336 0.02610368189607587
176.3587799 0.02115683374894554
221.2967072 0.025425135179643864
235.7777405 0.016822485632708075
395.9124146 0.016183992269610505
441.3374023 0.27154771326188815
587.3953247 1.0
754.1002197 0.018296435095958664
940.2948608 0.017463367541731438


