PRECURSORMZ: 956.5060893880004
COMPOUNDNAME: casmi2022challengebonus162
FORMULA: C44H74O21
SMILES: CC1C(C(C(C(O1)OCC2C(C(C(C(O2)OCC(=CCCC(=CCCC(=CCCC(C)(C=C)OC3C(C(C(C(O3)CO)O)O)O)CO)C)C)O)O)OC4C(C(C(C(O4)C)O)O)O)O)O)O
INCHIKEY: OEXNWSIXBSIJSR-VCFHHZPJSA-N
PRECURSORTYPE: [M+NH4]+
PRECURSORINTENSITY: 6863265.75
IONMODE: positive
CHARGE: 1
PARENTMASS: 938.4722663880004
NUM PEAKS: 72
67.05435181 0.541600246712778
69.03365326 0.12025972030130211
69.06997681 0.15417268909252518
71.01287842 0.06124799222240717
71.04917908 0.8375027021441536
73.02844238 0.08075992885470673
75.04401398 0.03093667944030017
79.05425262 0.456635727139975
81.03362274 0.02498449632262113
81.06990051 0.9074420973610462
81.07542419 0.02482130084914075
83.04911804 0.4037891765078938
83.08533478 0.025012670507157844
83.47682953 0.015608670070805054
85.02235413 0.026568759000703455
85.02839661 1.0
87.04442596 0.030710981668493682
91.05423737 0.5256260640319095
93.06991577 0.6295775352985659
93.0766449  0.02130373958994311
95.04935455 0.137306770201413
95.08550262 0.559660994464657
97.02844238 0.07817502797227552
97.06481934 0.02530258179205646
99.04382324 0.03379572552012051
105.0448151 0.028837265938755522
105.0698166 0.7289758865066234
107.0854797 0.39759652654619637
109.028183  0.015980818113020892
109.065155  0.024390694058971825
109.1011276 0.25353151768339266
111.0439377 0.1507500447636599
111.0803757 0.016746753188358263
115.0541916 0.020096889266447624
116.0619888 0.015770614352735992
117.0698242 0.1773035442393838
119.076683  0.01910998373959338
119.0855713 0.3874964930837138
121.1011581 0.12519351762634265
123.1166382 0.022148900686994735
128.0617218 0.05558935224607033
129.0696716 0.09603870679018038
130.0777435 0.019000875898523974
131.0854187 0.3153344661622817
133.1011047 0.21198170526689852
135.1165161 0.07461946020353116
141.0689697 0.018942059155849594
142.077774  0.0579824753565026
143.0852509 0.20148422606524624
144.0929108 0.029865358758252063
145.1009674 0.2544662562195139
147.1165466 0.10833795910245396
149.1326447 0.01776852382108329
155.085144  0.030467899673039124
156.0931396 0.033537908461952724
157.1005859 0.18816206827698229
159.116333  0.16533141318330166
161.1315918 0.02266623527825469
169.1009827 0.03286475666841063
171.1164856 0.10039739991584547
173.1324005 0.027540770157193476
181.1004639 0.019584831517374085
183.1172943 0.02499983639641272
185.1313629 0.06707277396877759
187.1496277 0.01498126373768933
199.1480103 0.022376891414988925
215.6757812 0.12599259048302253
245.4687042 0.018810333208312213
252.4669647 0.014341935285380126
352.4597168 0.023584629565392302
359.1411133 0.01660262272374087
463.4909058 0.01619810658883288


PRECURSORMZ: 956.5060893880004
COMPOUNDNAME: casmi2022challengebonus162
FORMULA: C44H74O21
SMILES: CC1C(C(C(C(O1)OCC2C(C(C(C(O2)OCC(=CCCC(=CCCC(=CCCC(C)(C=C)OC3C(C(C(C(O3)CO)O)O)O)CO)C)C)O)O)OC4C(C(C(C(O4)C)O)O)O)O)O)O
INCHIKEY: OEXNWSIXBSIJSR-VCFHHZPJSA-N
PRECURSORTYPE: [M+NH4]+
PRECURSORINTENSITY: 6863265.75
IONMODE: positive
CHARGE: 1
PARENTMASS: 938.4722663880004
NUM PEAKS: 72
67.05435181 0.541600246712778
69.03365326 0.12025972030130211
69.06997681 0.15417268909252518
71.01287842 0.06124799222240717
71.04917908 0.8375027021441536
73.02844238 0.08075992885470673
75.04401398 0.03093667944030017
79.05425262 0.456635727139975
81.03362274 0.02498449632262113
81.06990051 0.9074420973610462
81.07542419 0.02482130084914075
83.04911804 0.4037891765078938
83.08533478 0.025012670507157844
83.47682953 0.015608670070805054
85.02235413 0.026568759000703455
85.02839661 1.0
87.04442596 0.030710981668493682
91.05423737 0.5256260640319095
93.06991577 0.6295775352985659
93.0766449  0.02130373958994311
95.04935455 0.137306770201413
95.08550262 0.559660994464657
97.02844238 0.07817502797227552
97.06481934 0.02530258179205646
99.04382324 0.03379572552012051
105.0448151 0.028837265938755522
105.0698166 0.7289758865066234
107.0854797 0.39759652654619637
109.028183  0.015980818113020892
109.065155  0.024390694058971825
109.1011276 0.25353151768339266
111.0439377 0.1507500447636599
111.0803757 0.016746753188358263
115.0541916 0.020096889266447624
116.0619888 0.015770614352735992
117.0698242 0.1773035442393838
119.076683  0.01910998373959338
119.0855713 0.3874964930837138
121.1011581 0.12519351762634265
123.1166382 0.022148900686994735
128.0617218 0.05558935224607033
129.0696716 0.09603870679018038
130.0777435 0.019000875898523974
131.0854187 0.3153344661622817
133.1011047 0.21198170526689852
135.1165161 0.07461946020353116
141.0689697 0.018942059155849594
142.077774  0.0579824753565026
143.0852509 0.20148422606524624
144.0929108 0.029865358758252063
145.1009674 0.2544662562195139
147.1165466 0.10833795910245396
149.1326447 0.01776852382108329
155.085144  0.030467899673039124
156.0931396 0.033537908461952724
157.1005859 0.18816206827698229
159.116333  0.16533141318330166
161.1315918 0.02266623527825469
169.1009827 0.03286475666841063
171.1164856 0.10039739991584547
173.1324005 0.027540770157193476
181.1004639 0.019584831517374085
183.1172943 0.02499983639641272
185.1313629 0.06707277396877759
187.1496277 0.01498126373768933
199.1480103 0.022376891414988925
215.6757812 0.12599259048302253
245.4687042 0.018810333208312213
252.4669647 0.014341935285380126
352.4597168 0.023584629565392302
359.1411133 0.01660262272374087
463.4909058 0.01619810658883288


