PRECURSORMZ: 569.34487394
COMPOUNDNAME: casmi2022challengebonus22
FORMULA: C32H50O7
SMILES: CC1CC2C(OC3(C1C4(C(CC56CC57CCC(C(C7CCC6C4(C3O)C)(C)C)O)O)C)O2)C(C)(C)OC(=O)C
INCHIKEY: KEVQRIWNMCXXHQ-UHFFFAOYSA-N
PRECURSORTYPE: [M+Na]+
PRECURSORINTENSITY: 24796173.01172
IONMODE: positive
CHARGE: 1
PARENTMASS: 546.3556559399999
NUM PEAKS: 55
55.05462265 0.2882038193713475
57.0700798  0.13106580557935582
67.05426025 0.5281928331661396
69.03353882 0.1058942168946959
69.07003784 0.16720306045505512
79.05402374 0.3513845138948161
81.0697403  0.5507314172959616
83.04911041 0.17126943573910083
91.05400085 0.5670384378378398
91.12114716 0.08103394765413531
93.06969452 0.5517769514211995
95.04885864 0.11674584930744701
95.08578491 1.0
97.06455231 0.10794711407864525
105.0697327 0.793963175818124
107.0854263 0.8448821001075486
109.0644608 0.12476375945190644
109.1009369 0.38910072376481897
111.0812836 0.07337209533099064
117.0695953 0.14947540048267222
119.0853729 0.7530226675256273
121.0646667 0.15300896368659203
121.1008148 0.4751981212286286
123.0803604 0.09874484310108729
128.0621796 0.1277153052096383
129.0693512 0.16420686002858786
130.0780487 0.10050052952461908
131.0852356 0.4470938364137851
133.1009369 0.4357673181885315
135.1169891 0.11856348761546903
141.0696564 0.10733337111883509
143.0849609 0.39691614309803197
145.1008148 0.5888546938905717
146.4642334 0.08049707190783774
149.0957947 0.17490926305246532
155.0854645 0.5433223950195221
157.1008301 0.46944409168507545
159.1164703 0.2022550120680247
161.7169189 0.08442622616484918
169.1009064 0.37022884498005426
171.1164398 0.474894609502684
173.0961151 0.1293264803585831
175.1117096 0.08647271584520543
183.1180573 0.2025470024632818
185.1322784 0.16756547251092685
195.1174469 0.14033935052204416
197.1314087 0.0925602551897142
199.1106873 0.09448671452072499
206.1126404 0.09352911995784337
207.1165009 0.12216584396958792
209.131546  0.15612051439743227
211.1475067 0.14567418322136283
220.1242218 0.10376222280774268
255.7959442 0.09562254726545932
525.3283691 0.0898285507280073


PRECURSORMZ: 569.34487394
COMPOUNDNAME: casmi2022challengebonus22
FORMULA: C32H50O7
SMILES: CC1CC2C(OC3(C1C4(C(CC56CC57CCC(C(C7CCC6C4(C3O)C)(C)C)O)O)C)O2)C(C)(C)OC(=O)C
INCHIKEY: KEVQRIWNMCXXHQ-UHFFFAOYSA-N
PRECURSORTYPE: [M+Na]+
PRECURSORINTENSITY: 24796173.01172
IONMODE: positive
CHARGE: 1
PARENTMASS: 546.3556559399999
NUM PEAKS: 55
55.05462265 0.2882038193713475
57.0700798  0.13106580557935582
67.05426025 0.5281928331661396
69.03353882 0.1058942168946959
69.07003784 0.16720306045505512
79.05402374 0.3513845138948161
81.0697403  0.5507314172959616
83.04911041 0.17126943573910083
91.05400085 0.5670384378378398
91.12114716 0.08103394765413531
93.06969452 0.5517769514211995
95.04885864 0.11674584930744701
95.08578491 1.0
97.06455231 0.10794711407864525
105.0697327 0.793963175818124
107.0854263 0.8448821001075486
109.0644608 0.12476375945190644
109.1009369 0.38910072376481897
111.0812836 0.07337209533099064
117.0695953 0.14947540048267222
119.0853729 0.7530226675256273
121.0646667 0.15300896368659203
121.1008148 0.4751981212286286
123.0803604 0.09874484310108729
128.0621796 0.1277153052096383
129.0693512 0.16420686002858786
130.0780487 0.10050052952461908
131.0852356 0.4470938364137851
133.1009369 0.4357673181885315
135.1169891 0.11856348761546903
141.0696564 0.10733337111883509
143.0849609 0.39691614309803197
145.1008148 0.5888546938905717
146.4642334 0.08049707190783774
149.0957947 0.17490926305246532
155.0854645 0.5433223950195221
157.1008301 0.46944409168507545
159.1164703 0.2022550120680247
161.7169189 0.08442622616484918
169.1009064 0.37022884498005426
171.1164398 0.474894609502684
173.0961151 0.1293264803585831
175.1117096 0.08647271584520543
183.1180573 0.2025470024632818
185.1322784 0.16756547251092685
195.1174469 0.14033935052204416
197.1314087 0.0925602551897142
199.1106873 0.09448671452072499
206.1126404 0.09352911995784337
207.1165009 0.12216584396958792
209.131546  0.15612051439743227
211.1475067 0.14567418322136283
220.1242218 0.10376222280774268
255.7959442 0.09562254726545932
525.3283691 0.0898285507280073


