PRECURSORMZ: 570.3061482399999
COMPOUNDNAME: casmi2022challengebonus161
FORMULA: C32H40O8
SMILES: CC1C(C(OC1C2=CC(=C(C=C2)OC)OC)C3=CC(=C(C=C3)OC(C)C(C4=CC(=C(C=C4)OC)OC)O)OC)C
INCHIKEY: JYXVAMLAJSGCDL-NFVTZAPZSA-N
PRECURSORTYPE: [M+NH4]+
PRECURSORINTENSITY: 224033480.9141
IONMODE: positive
CHARGE: 1
PARENTMASS: 552.2723252399999
NUM PEAKS: 95
52.81795883 0.011244785478939267
52.832798   0.005664703295033592
57.97850418 0.005740482813329327
59.049366   0.008885188916760399
69.07009125 0.008832021191362116
74.83136749 0.005954364045860456
83.04876709 0.011575464542202134
107.049118  0.06225185351082486
107.4852753 0.005292640223929271
110.2275543 0.0050001156797069585
117.0698471 0.007745519104207288
117.3509903 0.005852928107803274
121.0648041 0.012463108898158257
124.051239  0.006305842538866949
126.8816757 0.006093222664539693
131.0848999 0.00975627000125588
133.0648041 0.007207372130040362
135.0796356 0.024940926181901767
136.0514832 0.027690465052976114
137.0593719 0.026107894686483894
138.0668335 0.006521698616109038
139.0752716 0.08189601163155245
143.0849457 0.009428741200249526
145.0642395 0.006134522074545614
146.0723267 0.02354218109312392
147.0801544 0.03304166935947396
150.0676575 0.012789951069113249
151.0382538 0.013074029705617723
151.0752411 1.0
157.1013336 0.006777198402861617
159.0803223 0.02953252786597199
160.0882416 0.04362705902358578
161.0587616 0.005727091289289777
161.095932  0.0063846881691912594
162.0675812 0.04370658994113867
163.0750885 0.13013324984484848
164.0843964 0.006459689745486168
165.0547638 0.16645712901824142
165.0907593 0.1641067666007559
167.0701294 0.0328518228643861
171.0809021 0.010799999601808283
173.0949402 0.007174638586587849
174.1034088 0.007984903227094638
175.0753937 0.11167454284153276
176.0669708 0.007263777848783859
176.0831909 0.14554271067378394
177.0907593 0.054972729883239875
178.0987701 0.2074188674350449
179.0696564 0.03269376367029405
179.1060486 0.04454343352066105
186.103653  0.09113772626456522
187.0749664 0.027758956176795746
188.082962  0.029180335886458412
189.0559998 0.006543527095714517
189.0902863 0.05038336981800748
191.0710602 0.007461125799563238
191.106308  0.18204298304837702
193.0861359 0.009994314882217754
195.0790863 0.00797643091052867
201.0914001 0.01960014755151627
202.0987396 0.2983000536728058
203.1069336 0.04600670930125432
205.1218567 0.041421495872785825
209.0960388 0.012525280697945857
210.1038361 0.02534167284293531
213.0906067 0.1378535999739657
215.1058197 0.02308916281709811
217.0981293 0.009292473334332536
217.1222076 0.3571704932031252
221.0764618 0.008244718846282185
225.0900116 0.0057487102885406035
226.098877  0.044596598560413765
227.1062775 0.024601132932781114
235.1322174 0.10177566864123923
237.1275177 0.007954832053619637
238.0976257 0.008783634810298029
238.1352692 0.008584932846542527
239.1067657 0.010616580751790545
240.1145325 0.038034864578148246
241.0869751 0.04993962597135861
241.1214447 0.09675954159023678
248.1199188 0.008381391349465426
254.128418  0.005821438465858412
259.1316223 0.011395676684998381
264.1136475 0.007897003837937918
267.1012268 0.009344082490083594
268.108551  0.009502718202758534
269.0834351 0.011640676492777776
269.1170654 0.022658544615577123
269.1522522 0.0338639889677404
276.1150513 0.010845293014388071
279.1374817 0.0216606357093519
294.1238708 0.008965629372947164
297.1472473 0.032151048413008344
307.1308594 0.008596756848782942


