PRECURSORMZ: 813.26541422
COMPOUNDNAME: casmi2022challengebonus140
FORMULA: C42H45ClN6O5S2
SMILES: CN(C)CCC(CSC1=CC=CC=C1)NC2=C(C=C(C=C2)S(=O)(=O)NC(=O)C3=CC=C(C=C3)N4CCN(CC4)CC5=CC=CC=C5C6=CC=C(C=C6)Cl)[N+](=O)[O-]
INCHIKEY: HPLNQCPCUACXLM-PGUFJCEWSA-N
PRECURSORTYPE: [M+H]+
PRECURSORINTENSITY: 1526586.71875
IONMODE: positive
CHARGE: 1
PARENTMASS: 812.25813822
NUM PEAKS: 17
58.06537247 0.8069648845744936
63.26593018 0.012751819470063357
135.0263672 0.02821319406688308
156.0072784 0.013400419946437016
163.0572205 0.02926410072556702
165.0703278 0.08772022121083002
166.0775909 0.20809894374385365
187.0864563 0.01545472747376166
189.1018219 0.18818616790085646
201.0461731 0.364881461694498
208.1154022 0.14124836196577265
239.1420288 0.013899219085853074
239.6116638 0.015562449438207473
304.2519836 0.03381140047069071
335.3780518 0.013695389873339134
389.1411438 1.0
840.6921997 0.017008757663572554


