PRECURSORMZ: 247.1339685
COMPOUNDNAME: casmi2022challengebonus164
FORMULA: C15H20O3
SMILES: CC1C(CCC2(C1=CC3C(C2)OC(=O)C3=C)C)O
INCHIKEY: PIVYLYLYFUMPBO-UHFFFAOYSA-N
PRECURSORTYPE: [M-H]-
PRECURSORINTENSITY: 5981764.142578
IONMODE: negative
CHARGE: -1
PARENTMASS: 248.1412445
NUM PEAKS: 26
50.69456482 0.0030588781241822015
50.70331573 0.0031142197006152118
50.78507233 0.006777414810064132
50.7872963  0.003757144928094563
56.36184692 0.003588053149123651
75.76502228 0.003218831366289345
76.67075348 0.003449812326069115
120.7921448 0.003458382057063761
127.4201813 0.0037810911444567876
135.0802155 0.05207044821893418
137.0958862 0.1759265563491032
148.4051666 0.003178385807346399
149.0819092 0.004710322072857165
149.0958557 0.346939973784583
149.1098022 0.007120179080653258
163.0770721 0.0058112729773510344
163.1116028 1.0
163.1243591 0.014783350420940101
163.1547699 0.0038987599976058624
175.1113434 0.020134256859077704
187.111908  0.005481143498658024
201.1265869 0.004246921019591675
203.1432343 0.8064098767077357
203.1603088 0.014440679217357264
220.7261963 0.006638843334312812
247.1330872 0.0922376535826542


