PRECURSORMZ: 441.2271647439999
COMPOUNDNAME: casmi2022challengebonus172
FORMULA: C26H32O6
SMILES: CCCCCC1=CC2=CC(=CC(=C2C(=O)O1)OC3=C(C=C(C=C3O)OC)CCCCC)O
INCHIKEY: PONBYQAAIAEAEY-UHFFFAOYSA-N
PRECURSORTYPE: [M+H]+
PRECURSORINTENSITY: 524298259.6094
IONMODE: positive
CHARGE: 1
PARENTMASS: 440.2198887439999
NUM PEAKS: 136
55.0180397  0.00680547004678897
55.05426025 0.010557117275644063
59.04917145 0.006886494670323689
60.82780838 0.00435895841357788
67.054039   0.029271123179241604
69.06995392 0.059081964555037926
71.04914093 0.005312560990386013
71.08531189 0.023066421707304045
73.4265213  0.004110464001180665
79.05405426 0.017913938182183415
81.06464386 0.004695578040715619
81.06996155 0.13880024707392252
91.05443573 0.0396560594135382
92.78878784 0.005265784528509319
93.06980133 0.050204240493348685
95.04901123 0.007168389919726459
95.0855484  0.31407918380117095
99.04364777 0.028693109730912457
99.08044434 0.0054751767132726085
105.0698547 0.06644742859775661
107.0486145 0.007687000388503662
107.0854721 0.00671174564066544
109.0573654 0.006245989436159342
109.0648422 0.10407661948672393
111.0442352 0.008078408101996856
113.0596161 0.008998586747424507
117.0699997 0.005731185557456205
119.0489273 0.0063059668551060065
119.085144  0.028607224139634617
121.0645447 0.008927356262479244
123.0802994 0.03006375610464496
125.0502319 0.009168092026711547
125.0597153 0.1977226087929177
133.0647125 0.008125595484475688
133.1010437 0.1063265956002385
135.0811005 0.004904879440694715
137.0596924 0.7929901353911818
137.0701904 0.013365222315223595
137.0968933 0.00725795415293222
138.0674591 0.373018254167699
138.0768433 0.005279750519930299
139.075882  0.034224260307239324
143.0850525 0.02729500918899164
146.0095978 0.004938351949898318
146.0725098 0.006113077857574571
147.0446625 0.007150364096464977
147.0802002 0.009077585436827755
149.0951385 0.005315599891583218
150.0309448 0.10526669651741158
151.0753021 0.06092069302882946
151.1116791 0.05570425241960244
152.0831299 0.1435922651007099
160.0887604 0.0062068877394305865
161.0957642 0.06397658319149813
163.0387421 0.009189180641902916
165.0914612 0.005714660603112352
165.1274109 0.18491999624339997
166.0258789 0.026936172507722164
168.0405273 0.0228932446878563
174.4659119 0.0053828241661102215
175.1119843 0.05552018547329287
177.0546417 0.005809540258887369
188.046402  0.019264611903393403
189.0542755 0.005875213228505527
191.0335388 0.008904789607292588
191.1059723 0.0064123252115771785
192.0415497 0.42696046205636884
192.0621643 0.007525180492467976
193.1223602 0.16607140163178333
194.1304169 0.040346265866164736
198.4845276 0.004828722686670336
201.0907898 0.02060805681979886
202.0990601 0.009776620842443382
203.1069183 0.0067012857469919
205.0493774 0.019924493052668375
207.1380768 0.006570617242753425
212.0835876 0.0807890375506424
215.0698242 0.07950456133335924
215.6841278 0.005119123567813222
215.7086334 0.026078909310455946
219.0995026 0.005949095053873368
227.0698395 0.052177317706022124
229.0857849 0.022446010172041137
230.0936584 0.22562678069841502
239.0680389 0.004911445144941019
241.0852051 0.007101217673906186
245.082016  0.009948552358360617
247.095993  0.00848262602635437
248.104187  0.3819954273859677
248.1277008 0.00498956890262292
249.1117554 0.09242462709560588
253.0847015 0.04239147397895298
255.0644684 0.006319989653380253
257.0802002 0.01115131271357678
261.1111145 0.020307660056101642
269.0433044 0.007244389525820305
269.0817566 0.0057496031887336796
271.0596924 0.026057592406041167
271.0919189 0.0057799608773006625
273.0740662 0.019614918000379736
283.0613098 0.007097115369652026
283.0965881 0.006599101366972934
285.1142883 0.007130717950622456
287.0553284 0.007369789858049719
297.0744019 0.0059513216701593714
297.1471863 0.04044536250171079
301.0704041 0.009719888315900163
307.1338501 0.006639266466758643
309.1483459 0.006825058854873054
311.12677   0.04063547327248384
315.1595764 0.007167297316885115
323.1633911 0.009979920359467482
325.1434937 0.10154687758444637
326.1546631 0.005967414467694259
327.1595459 0.00677060709694325
335.1259155 0.004780483581048306
338.114502  0.021832166995550385
339.1209717 0.03079236186645939
339.1603088 0.028298264937344015
341.1366882 0.008906770414484547
341.177124  0.008712680509456942
343.1530457 0.04663974317712954
352.1313171 0.005194274787444258
353.1377258 0.26076673987325144
356.1240845 0.050372036257986
357.1306152 0.006645336305575493
370.1391602 0.006298018142889975
371.1486511 1.0
371.263031  0.009514209281900894
377.2121582 0.006107362663411762
381.2062988 0.022571885664398345
395.22052   0.06348288810238284
409.2043762 0.006768101224537448
413.2323303 0.04575006928100116
423.2167664 0.051704242973737644
441.2268066 0.44324438545271583


