PRECURSORMZ: 413.15947910799986
COMPOUNDNAME: casmi2022challengebonus66
FORMULA: C23H24O7
SMILES: CC(=CCC1=C(C=CC2=C1OC3COC4=CC(=C(C=C4C3(C2=O)O)OC)OC)O)C
INCHIKEY: GHBZHAWROFXWAR-NZQKXSOJSA-N
PRECURSORTYPE: [M+H]+
PRECURSORINTENSITY: 2307186.005859
IONMODE: positive
CHARGE: 1
PARENTMASS: 412.15220310799987
NUM PEAKS: 23
51.13823318 0.05946728847297353
60.65798569 0.05791612851818117
76.55075073 0.06261762568467494
79.05414581 0.11571372988467908
80.26721954 0.057865923740179084
85.74654388 0.05997944781300386
109.0650177 0.07394422453412437
122.0366287 0.07223312668095229
124.0518875 0.11987598587710221
135.0444641 0.42390650160700677
135.0547791 0.060208143058652956
139.0754547 0.5365499357247719
140.046524  0.07095170078456693
155.0700684 0.26735431158431755
165.065979  0.13066755460116325
167.0701141 0.120529997039658
191.0340729 0.48535533433961425
198.2328949 0.06555020503016198
203.0335693 1.0
221.0929718 0.08722930143493375
229.0875549 0.06821625903547382
257.0820312 0.06763188777530046
311.0909729 0.8107012581201375


PRECURSORMZ: 413.15947910799986
COMPOUNDNAME: casmi2022challengebonus66
FORMULA: C23H24O7
SMILES: CC(=CCC1=C(C=CC2=C1OC3COC4=CC(=C(C=C4C3(C2=O)O)OC)OC)O)C
INCHIKEY: GHBZHAWROFXWAR-NZQKXSOJSA-N
PRECURSORTYPE: [M+H]+
PRECURSORINTENSITY: 2307186.005859
IONMODE: positive
CHARGE: 1
PARENTMASS: 412.15220310799987
NUM PEAKS: 23
51.13823318 0.05946728847297353
60.65798569 0.05791612851818117
76.55075073 0.06261762568467494
79.05414581 0.11571372988467908
80.26721954 0.057865923740179084
85.74654388 0.05997944781300386
109.0650177 0.07394422453412437
122.0366287 0.07223312668095229
124.0518875 0.11987598587710221
135.0444641 0.42390650160700677
135.0547791 0.060208143058652956
139.0754547 0.5365499357247719
140.046524  0.07095170078456693
155.0700684 0.26735431158431755
165.065979  0.13066755460116325
167.0701141 0.120529997039658
191.0340729 0.48535533433961425
198.2328949 0.06555020503016198
203.0335693 1.0
221.0929718 0.08722930143493375
229.0875549 0.06821625903547382
257.0820312 0.06763188777530046
311.0909729 0.8107012581201375


