PRECURSORMZ: 403.1387436639999
COMPOUNDNAME: casmi2022challengebonus158
FORMULA: C21H22O8
SMILES: COC1=C(C=C(C=C1)C2=C(C(=O)C3=C(O2)C(=C(C=C3OC)OC)OC)OC)OC
INCHIKEY: XBZIUXVIWRAJKB-UHFFFAOYSA-N
PRECURSORTYPE: [M+H]+
PRECURSORINTENSITY: 137478574.5664
IONMODE: positive
CHARGE: 1
PARENTMASS: 402.1314676639999
NUM PEAKS: 202
50.23964691 0.006640486057089901
53.03897476 0.006554048830104787
53.43069839 0.005494892773106043
65.03883362 0.00790518666120084
75.46743011 0.005102227276072851
79.05432129 0.04134882903075547
81.76804352 0.005587933754592724
84.80391693 0.005425108952112922
86.78671265 0.007790480668883142
91.05397797 0.008842173788756843
94.04125214 0.010575096839929554
95.04912567 0.035227065756790785
99.59116364 0.005635176459371432
99.96208191 0.005978048145567866
105.0336609 0.005630396484808822
107.049263  0.024301734772426788
109.0652084 0.011047590873641317
111.0444946 0.007259863300878639
119.0487518 0.008938488266615691
121.0283813 0.1049737412918862
121.0653763 0.010894349641639123
122.0362473 0.024103955656773215
123.0437393 0.030870490186017684
125.0231552 0.024310334354926504
131.0489655 0.012402576517274347
133.0282135 0.024300440181292852
135.0437469 0.04616191861407019
136.0159302 0.007570356458984239
137.0230103 0.07710191057508231
137.0595398 0.03967197249343013
138.0676422 0.03717375006013221
139.0389709 0.006555140348119674
147.0435638 0.01253675990114581
148.0521698 0.008707056127514755
149.0233002 0.08094378322332636
149.0600128 0.021896072784745292
151.0392609 0.04259658360615079
151.0752716 0.08801868710430638
153.0180359 0.20075876240201385
153.0685883 0.006422116878417777
155.0703888 0.03482420535457785
157.0657196 0.007257488473569763
159.0444489 0.014166385015532386
160.0514069 0.006461462295233477
161.0244446 0.00914775300045046
162.0685272 0.006124679629591021
163.0393524 0.06520721287739899
165.0207062 0.05365369494247751
165.0544128 1.0
165.0882568 0.007760855967411909
167.0337982 0.030890600065723486
169.0651245 0.008467269080817958
171.0288544 0.01044738429638278
172.1362152 0.006103187724491692
175.0387115 0.00781720946306294
175.0750732 0.011953110834239717
177.0538177 0.026810203936856715
178.0623322 0.10451904929649605
179.03479   0.011023784076007832
179.0704346 0.012473014684984404
181.013031  0.1346816914600894
181.0491333 0.011571884065240444
181.065033  0.011851568633795356
182.0723419 0.01089582544732721
185.0605164 0.02070775376265157
189.0548248 0.006016929596715739
193.0121765 0.007522847925851776
195.028595  0.028161074529369022
197.0596008 0.02861725008671222
198.0674744 0.030011834988559763
199.0221558 0.012834507400571115
199.0749054 0.024454868826949482
200.0833282 0.01068198169670389
201.0559387 0.0068189147018891125
201.0908203 0.02546541143561594
203.0696564 0.009800813587631421
209.0600281 0.008654527880720807
210.0681152 0.012264200519632522
211.0750275 0.02847340380692602
212.0826569 0.013255211442890468
213.0553894 0.05380135730462583
214.0621643 0.014436710592736138
215.0692291 0.01399534386055357
224.0451965 0.00765177326719287
225.0549011 0.03192538452797639
226.0619507 0.009592568450081874
227.0336609 0.008378111520175585
227.0704041 0.05211987803338215
228.078064  0.028912749679528053
229.0492401 0.0073521050345165635
229.0851898 0.02794935670046074
231.0652466 0.05255231659947654
237.0546265 0.012722853851074117
238.0614319 0.01205897538961383
239.0701447 0.023416634942132735
240.0425262 0.006522557689237297
240.0771179 0.011324005823956545
241.0492554 0.11545022709441266
241.0785217 0.010665094192532993
241.0856171 0.009581453722388937
242.0571899 0.03298347445110013
243.0653534 0.06688010102752291
243.1006927 0.009521010559757064
244.0371704 0.0059738752750174125
244.0991516 0.0056977825622556745
245.0818176 0.0074440865807207076
246.0864868 0.0076982495119701675
252.0415955 0.008458112457470848
253.0498352 0.045562415741578356
253.0847778 0.007718648488824615
254.0567932 0.024358724986919836
255.0649872 0.08425771653032338
256.0717773 0.059463188168544914
257.0481262 0.014474243864010326
257.0802307 0.06797328875472224
258.0557861 0.01584020814814193
258.085968  0.0069030934455398055
259.0592957 0.1057251682415664
265.0502625 0.007413835737132407
266.057251  0.038136530999382384
267.0652161 0.1541013143524048
268.0730591 0.022256499366456996
269.0443726 0.09967907226812728
269.077179  0.01830354431186327
270.0516663 0.03955122860139572
270.0830078 0.006803562233066026
271.0596619 0.08546937485880778
271.0957642 0.02972303680867254
272.0679932 0.01312332391344825
273.075592  0.03998684300543523
274.0828857 0.030505201131288757
276.6697388 0.00693975872025306
281.0444336 0.03640572470342976
282.0520325 0.027289174451813142
282.0864868 0.007764485194299909
283.0254517 0.009361436689969532
283.0605164 0.12003350841846384
284.0340576 0.010788487906724997
284.067749  0.18300559137013253
285.0392151 0.03647513904416461
285.0757141 0.10873947280232692
286.0460815 0.03563105434299844
286.0846863 0.025877246541506835
287.0554504 0.19606892409966178
287.0900269 0.01050654344460567
294.0528259 0.011569968267794417
295.0596313 0.025647607509842504
296.0666504 0.042466252970621274
297.0391235 0.09357045233770103
297.0757446 0.05429823774049837
298.0465393 0.025266396958488153
298.0836182 0.046315929831648776
299.0542908 0.11292532875055969
299.0913391 0.04905961689759691
300.0626831 0.03115074237214494
301.0704956 0.3668311468676242
302.0780945 0.07862362206991437
309.0382996 0.02410603433578348
310.0479431 0.008854296830895057
310.5860596 0.00686307464390226
311.0554199 0.08455493096281118
312.0618286 0.04988192764766507
312.6944885 0.007245411969021331
313.0336914 0.031114282285895724
313.0704346 0.07811926177415687
314.0417175 0.03392650652952282
314.0782166 0.03881314242745303
315.0493164 0.3769375770380441
315.086792  0.1186556798693978
317.1022034 0.035683878738091
323.0542908 0.009419011444794843
324.0622864 0.025757791599686383
325.0331116 0.02032687179488568
325.0693665 0.019544347863621147
326.0415039 0.00783273186460023
326.0778198 0.045852830045038005
327.0483093 0.29537470284761763
327.0863037 0.7256608969532082
327.1213379 0.008084647594355216
328.0578003 0.051372783310241664
329.0652771 0.18481402518630152
330.0732727 0.26168936256972514
339.0484009 0.023285905211515093
340.0558167 0.007607318587111103
341.0645752 0.051199928599491344
343.0438538 0.2545281469722294
343.0827332 0.12287014656373657
344.0898438 0.05746863219784773
345.0969238 0.07811698284248755
353.0645752 0.028339646312512564
354.0700989 0.009230740099756737
355.080658  0.013758643807312312
357.059845  0.28471318358811787
358.0682983 0.12966227676736114
369.0960693 0.007940367668846047
371.0757446 0.031102106360132758
372.0857239 0.011272908960605892
373.0919189 0.3180254108552781
373.1372681 0.0069341897220091455
373.1455383 0.00803109411035607
387.1079407 0.023702573175593353
408.7635803 0.006140601126216442


PRECURSORMZ: 403.1387436639999
COMPOUNDNAME: casmi2022challengebonus158
FORMULA: C21H22O8
SMILES: COC1=C(C=C(C=C1)C2=C(C(=O)C3=C(O2)C(=C(C=C3OC)OC)OC)OC)OC
INCHIKEY: XBZIUXVIWRAJKB-UHFFFAOYSA-N
PRECURSORTYPE: [M+H]+
PRECURSORINTENSITY: 137478574.5664
IONMODE: positive
CHARGE: 1
PARENTMASS: 402.1314676639999
NUM PEAKS: 202
50.23964691 0.006640486057089901
53.03897476 0.006554048830104787
53.43069839 0.005494892773106043
65.03883362 0.00790518666120084
75.46743011 0.005102227276072851
79.05432129 0.04134882903075547
81.76804352 0.005587933754592724
84.80391693 0.005425108952112922
86.78671265 0.007790480668883142
91.05397797 0.008842173788756843
94.04125214 0.010575096839929554
95.04912567 0.035227065756790785
99.59116364 0.005635176459371432
99.96208191 0.005978048145567866
105.0336609 0.005630396484808822
107.049263  0.024301734772426788
109.0652084 0.011047590873641317
111.0444946 0.007259863300878639
119.0487518 0.008938488266615691
121.0283813 0.1049737412918862
121.0653763 0.010894349641639123
122.0362473 0.024103955656773215
123.0437393 0.030870490186017684
125.0231552 0.024310334354926504
131.0489655 0.012402576517274347
133.0282135 0.024300440181292852
135.0437469 0.04616191861407019
136.0159302 0.007570356458984239
137.0230103 0.07710191057508231
137.0595398 0.03967197249343013
138.0676422 0.03717375006013221
139.0389709 0.006555140348119674
147.0435638 0.01253675990114581
148.0521698 0.008707056127514755
149.0233002 0.08094378322332636
149.0600128 0.021896072784745292
151.0392609 0.04259658360615079
151.0752716 0.08801868710430638
153.0180359 0.20075876240201385
153.0685883 0.006422116878417777
155.0703888 0.03482420535457785
157.0657196 0.007257488473569763
159.0444489 0.014166385015532386
160.0514069 0.006461462295233477
161.0244446 0.00914775300045046
162.0685272 0.006124679629591021
163.0393524 0.06520721287739899
165.0207062 0.05365369494247751
165.0544128 1.0
165.0882568 0.007760855967411909
167.0337982 0.030890600065723486
169.0651245 0.008467269080817958
171.0288544 0.01044738429638278
172.1362152 0.006103187724491692
175.0387115 0.00781720946306294
175.0750732 0.011953110834239717
177.0538177 0.026810203936856715
178.0623322 0.10451904929649605
179.03479   0.011023784076007832
179.0704346 0.012473014684984404
181.013031  0.1346816914600894
181.0491333 0.011571884065240444
181.065033  0.011851568633795356
182.0723419 0.01089582544732721
185.0605164 0.02070775376265157
189.0548248 0.006016929596715739
193.0121765 0.007522847925851776
195.028595  0.028161074529369022
197.0596008 0.02861725008671222
198.0674744 0.030011834988559763
199.0221558 0.012834507400571115
199.0749054 0.024454868826949482
200.0833282 0.01068198169670389
201.0559387 0.0068189147018891125
201.0908203 0.02546541143561594
203.0696564 0.009800813587631421
209.0600281 0.008654527880720807
210.0681152 0.012264200519632522
211.0750275 0.02847340380692602
212.0826569 0.013255211442890468
213.0553894 0.05380135730462583
214.0621643 0.014436710592736138
215.0692291 0.01399534386055357
224.0451965 0.00765177326719287
225.0549011 0.03192538452797639
226.0619507 0.009592568450081874
227.0336609 0.008378111520175585
227.0704041 0.05211987803338215
228.078064  0.028912749679528053
229.0492401 0.0073521050345165635
229.0851898 0.02794935670046074
231.0652466 0.05255231659947654
237.0546265 0.012722853851074117
238.0614319 0.01205897538961383
239.0701447 0.023416634942132735
240.0425262 0.006522557689237297
240.0771179 0.011324005823956545
241.0492554 0.11545022709441266
241.0785217 0.010665094192532993
241.0856171 0.009581453722388937
242.0571899 0.03298347445110013
243.0653534 0.06688010102752291
243.1006927 0.009521010559757064
244.0371704 0.0059738752750174125
244.0991516 0.0056977825622556745
245.0818176 0.0074440865807207076
246.0864868 0.0076982495119701675
252.0415955 0.008458112457470848
253.0498352 0.045562415741578356
253.0847778 0.007718648488824615
254.0567932 0.024358724986919836
255.0649872 0.08425771653032338
256.0717773 0.059463188168544914
257.0481262 0.014474243864010326
257.0802307 0.06797328875472224
258.0557861 0.01584020814814193
258.085968  0.0069030934455398055
259.0592957 0.1057251682415664
265.0502625 0.007413835737132407
266.057251  0.038136530999382384
267.0652161 0.1541013143524048
268.0730591 0.022256499366456996
269.0443726 0.09967907226812728
269.077179  0.01830354431186327
270.0516663 0.03955122860139572
270.0830078 0.006803562233066026
271.0596619 0.08546937485880778
271.0957642 0.02972303680867254
272.0679932 0.01312332391344825
273.075592  0.03998684300543523
274.0828857 0.030505201131288757
276.6697388 0.00693975872025306
281.0444336 0.03640572470342976
282.0520325 0.027289174451813142
282.0864868 0.007764485194299909
283.0254517 0.009361436689969532
283.0605164 0.12003350841846384
284.0340576 0.010788487906724997
284.067749  0.18300559137013253
285.0392151 0.03647513904416461
285.0757141 0.10873947280232692
286.0460815 0.03563105434299844
286.0846863 0.025877246541506835
287.0554504 0.19606892409966178
287.0900269 0.01050654344460567
294.0528259 0.011569968267794417
295.0596313 0.025647607509842504
296.0666504 0.042466252970621274
297.0391235 0.09357045233770103
297.0757446 0.05429823774049837
298.0465393 0.025266396958488153
298.0836182 0.046315929831648776
299.0542908 0.11292532875055969
299.0913391 0.04905961689759691
300.0626831 0.03115074237214494
301.0704956 0.3668311468676242
302.0780945 0.07862362206991437
309.0382996 0.02410603433578348
310.0479431 0.008854296830895057
310.5860596 0.00686307464390226
311.0554199 0.08455493096281118
312.0618286 0.04988192764766507
312.6944885 0.007245411969021331
313.0336914 0.031114282285895724
313.0704346 0.07811926177415687
314.0417175 0.03392650652952282
314.0782166 0.03881314242745303
315.0493164 0.3769375770380441
315.086792  0.1186556798693978
317.1022034 0.035683878738091
323.0542908 0.009419011444794843
324.0622864 0.025757791599686383
325.0331116 0.02032687179488568
325.0693665 0.019544347863621147
326.0415039 0.00783273186460023
326.0778198 0.045852830045038005
327.0483093 0.29537470284761763
327.0863037 0.7256608969532082
327.1213379 0.008084647594355216
328.0578003 0.051372783310241664
329.0652771 0.18481402518630152
330.0732727 0.26168936256972514
339.0484009 0.023285905211515093
340.0558167 0.007607318587111103
341.0645752 0.051199928599491344
343.0438538 0.2545281469722294
343.0827332 0.12287014656373657
344.0898438 0.05746863219784773
345.0969238 0.07811698284248755
353.0645752 0.028339646312512564
354.0700989 0.009230740099756737
355.080658  0.013758643807312312
357.059845  0.28471318358811787
358.0682983 0.12966227676736114
369.0960693 0.007940367668846047
371.0757446 0.031102106360132758
372.0857239 0.011272908960605892
373.0919189 0.3180254108552781
373.1372681 0.0069341897220091455
373.1455383 0.00803109411035607
387.1079407 0.023702573175593353
408.7635803 0.006140601126216442


