PRECURSORMZ: 561.1942465279998
COMPOUNDNAME: casmi2022challengebonus135
FORMULA: C26H34O12
SMILES: COC1=C(C=CC(=C1)C2C(C(CO2)C(C3=CC(=C(C=C3)O)OC)OC4C(C(C(C(O4)CO)O)O)O)CO)O
INCHIKEY: WMABCPOXSNGIJO-UHFFFAOYSA-N
PRECURSORTYPE: [M+Na]+
PRECURSORINTENSITY: 1631121.71875
IONMODE: positive
CHARGE: 1
PARENTMASS: 538.2050285279997
NUM PEAKS: 13
99.35451508 0.035729185885564806
137.0599213 0.208574068078053
165.9268188 0.03723702015466249
175.0754242 0.04825644165194926
189.0915833 0.05789507645256911
203.0523834 1.0
214.9163971 0.192548202783452
214.9454041 0.1331959831939781
235.7290955 0.034201335082850906
246.9219513 0.03643673356135816
311.1274109 0.05441630123943771
381.1308899 0.6845306287207649
561.1911011 0.24995618503875025


