PRECURSORMZ: 647.2334318960002
COMPOUNDNAME: casmi2022challengebonus131
FORMULA: C32H38O14
SMILES: CC1C(C(C(C(O1)OC2=C(OC3=C(C(=CC(=C3C2=O)O)O)CC=C(C)C)C4=CC=C(C=C4)OC)OC5C(C(C(CO5)O)O)O)O)O
INCHIKEY: BVDGQVAUJNUPGW-XZYNUEHNSA-N
PRECURSORTYPE: [M+H]+
PRECURSORINTENSITY: 2212871.75
IONMODE: positive
CHARGE: 1
PARENTMASS: 646.2261558960001
NUM PEAKS: 29
57.0337677  0.17120671677944715
61.02850723 0.02059583913280466
61.78142166 0.010009536362908163
69.03369904 0.11186935763250538
71.01278687 0.011998592945748147
71.04915619 0.15744219247425836
73.02843475 0.24049908991197283
83.04914093 0.10009551161030762
85.02843475 0.2833718906254248
97.02845001 0.14634404614351312
108.0456314 0.010077132446387391
108.2727814 0.010295755558578961
111.0435944 0.05684286571989879
115.0386429 0.05594224500933487
179.4714355 0.010184834053782548
221.0690765 0.013279947591107878
288.0375671 0.011132486680157719
313.0703735 1.0
313.1062317 0.01992276654336819
325.070343  0.018900963135640998
351.0879822 0.016301232423869265
355.0791321 0.13266346375402843
361.107605  0.012914978009363122
369.132019  0.17097831733102647
377.1029358 0.018533040022703177
405.0942078 0.021724873219434167
482.953186  0.013417528349163963
587.5358887 0.012683215905181129
661.8219604 0.01217045660168139


PRECURSORMZ: 647.2334318960002
COMPOUNDNAME: casmi2022challengebonus131
FORMULA: C32H38O14
SMILES: CC1C(C(C(C(O1)OC2=C(OC3=C(C(=CC(=C3C2=O)O)O)CC=C(C)C)C4=CC=C(C=C4)OC)OC5C(C(C(CO5)O)O)O)O)O
INCHIKEY: BVDGQVAUJNUPGW-XZYNUEHNSA-N
PRECURSORTYPE: [M+H]+
PRECURSORINTENSITY: 2212871.75
IONMODE: positive
CHARGE: 1
PARENTMASS: 646.2261558960001
NUM PEAKS: 29
57.0337677  0.17120671677944715
61.02850723 0.02059583913280466
61.78142166 0.010009536362908163
69.03369904 0.11186935763250538
71.01278687 0.011998592945748147
71.04915619 0.15744219247425836
73.02843475 0.24049908991197283
83.04914093 0.10009551161030762
85.02843475 0.2833718906254248
97.02845001 0.14634404614351312
108.0456314 0.010077132446387391
108.2727814 0.010295755558578961
111.0435944 0.05684286571989879
115.0386429 0.05594224500933487
179.4714355 0.010184834053782548
221.0690765 0.013279947591107878
288.0375671 0.011132486680157719
313.0703735 1.0
313.1062317 0.01992276654336819
325.070343  0.018900963135640998
351.0879822 0.016301232423869265
355.0791321 0.13266346375402843
361.107605  0.012914978009363122
369.132019  0.17097831733102647
377.1029358 0.018533040022703177
405.0942078 0.021724873219434167
482.953186  0.013417528349163963
587.5358887 0.012683215905181129
661.8219604 0.01217045660168139


