PRECURSORMZ: 321.13085842399994
COMPOUNDNAME: casmi2022challengebonus47
FORMULA: C15H22O6
SMILES: CC(CCCC(C)(C1=C(C=C(C=C1)C(=O)O)O)O)(CO)O
INCHIKEY: CYAWKJKAMCXLET-UHFFFAOYSA-N
PRECURSORTYPE: [M+Na]+
PRECURSORINTENSITY: 1405838.222656
IONMODE: positive
CHARGE: 1
PARENTMASS: 298.14164042399995
NUM PEAKS: 4
129.2777252 0.2770350456479273
135.5252533 0.3057257318787789
176.1175537 0.28401545977984183
303.119873  1.0


PRECURSORMZ: 321.13085842399994
COMPOUNDNAME: casmi2022challengebonus47
FORMULA: C15H22O6
SMILES: CC(CCCC(C)(C1=C(C=C(C=C1)C(=O)O)O)O)(CO)O
INCHIKEY: CYAWKJKAMCXLET-UHFFFAOYSA-N
PRECURSORTYPE: [M+Na]+
PRECURSORINTENSITY: 1405838.222656
IONMODE: positive
CHARGE: 1
PARENTMASS: 298.14164042399995
NUM PEAKS: 4
129.2777252 0.2770350456479273
135.5252533 0.3057257318787789
176.1175537 0.28401545977984183
303.119873  1.0


