PRECURSORMZ: 977.5326657200002
COMPOUNDNAME: casmi2022challengebonus178
FORMULA: C47H80O18
SMILES: CC(=CCCC(C)(C1CCC2(C1C(CC3C2(CCC4C3(CC(C(C4(C)C)OC5C(C(C(C(O5)CO)O)O)O)O)C)C)O)C)OC6C(C(C(C(O6)COC7C(C(C(CO7)O)O)O)O)O)O)C
INCHIKEY: GELOPBLVWSJPGZ-GQKYFYALSA-N
PRECURSORTYPE: [M+FA-H]-
PRECURSORINTENSITY: 2688773.898437
IONMODE: negative
CHARGE: -1
PARENTMASS: 932.5344647200002
NUM PEAKS: 17
71.0124588  1.0
73.02800751 0.11657292878976686
74.43801117 0.07038002033553635
80.26416779 0.0692831824197129
85.0282135  0.2492303641578667
89.02292633 0.6554463575179639
98.43908691 0.07342684154597885
98.53366089 0.0721307064792152
101.022583  0.4536666436886595
101.5456238 0.07892172388978005
104.4192276 0.05918256324349069
113.0227203 0.11646078939739246
125.0230713 0.15880935796019782
131.0335236 0.15795074024854605
221.2728424 0.11229786418496777
311.5343933 0.07055851393537468
691.2436523 0.08134430827350107


