PRECURSORMZ: 357.20603537599993
COMPOUNDNAME: casmi2022challengebonus229
FORMULA: C22H28O4
SMILES: CCC(C)C=C(C)C=CC(=O)OC1C=CC2=CC(=O)C(=CC2(C1C)C)O
INCHIKEY: YYNSFXBSPOJKAH-UHFFFAOYSA-N
PRECURSORTYPE: [M+H]+
PRECURSORINTENSITY: 34160374.76758
IONMODE: positive
CHARGE: 1
PARENTMASS: 356.19875937599994
NUM PEAKS: 94
51.89262009 0.0013000603858025791
53.03908157 0.0027193229275619805
55.01809692 0.005286561658680904
55.05448914 0.01695355741731649
57.07015228 0.07369406367761093
59.04936218 0.0018969806322501426
62.15342712 0.0014707676674521285
63.24534225 0.0015038373123041045
64.62902832 0.001496079928071792
65.03895569 0.0035379636956006373
67.05435944 0.13621207697186752
67.05858612 0.0031001765751532137
69.03360748 0.0324390215272884
69.06994629 0.01774435249818583
77.03903198 0.0016466747525942706
79.05426788 0.03024305685105712
81.05420685 0.002524106102718087
81.05867767 0.0034018687541686036
81.06060791 0.002280000583172235
81.0699234  0.6747427360965141
81.08149719 0.005553524411066152
81.08398438 0.006782562062152494
83.08529663 0.0053354411420391875
91.05425262 0.0056976197115064155
93.07010651 0.016982450741304046
95.04216003 0.0025429072739018466
95.04916382 0.139488570741652
95.05445099 0.0026069035956788637
95.05627441 0.0026025738547684634
95.0855484  0.12732954471614927
95.09104156 0.00144828472220986
95.10254669 0.00135440454995768
95.50301361 0.0013095280095066176
97.06497955 0.001805699082391021
97.10076904 0.0015351757362904446
100.0604095 0.0014298740096487326
104.7382965 0.001701169061650941
105.0698242 0.016636485774239946
107.0855713 0.021305092776194762
108.0929184 0.0018285927512119817
109.0648041 0.07494339371407036
109.1012344 0.04808535909312142
111.0439377 0.003444021090908157
119.0489655 0.007110447413285705
119.0856323 0.011057979789791275
121.10112   0.027224934311083592
123.0810928 0.015201006354933006
123.0955276 0.006978331362919119
123.1167603 1.0
123.1247864 0.014717814474650068
123.1329346 0.007132622597301659
123.1386719 0.007986984137244166
123.1432419 0.007842635422505158
128.0619354 0.027634509132884295
131.0851898 0.001821406470286213
132.2653809 0.0014190845581303442
133.1012421 0.030614101236443
137.0593414 0.0025315435462807986
141.0697021 0.0013684616744631803
143.072113  0.002993185590433602
143.0855103 0.15523847819917155
143.0953522 0.0022892878692371606
143.0988617 0.0027680085633105013
145.1010437 0.007984235472297834
146.0726624 0.008815357406291044
149.095459  0.0021078241945581668
151.0748596 0.0017936711145442403
151.0979004 0.0024227860305448875
151.1116028 0.06476841742087565
155.0600891 0.0016381469929877325
157.1015167 0.0017292248698038604
159.0800476 0.002369081440684148
161.080307  0.0018618669902413483
161.0960083 0.13473036233892055
161.1118469 0.0032495301199441935
171.080307  0.08927733833782386
173.0955505 0.005495050801550982
174.0675201 0.05161231298139383
185.0960236 0.0017549224716330782
187.0765686 0.0016483370930790381
189.0908051 0.06862205058835218
195.1172333 0.0018926379954586061
199.0747986 0.0033684154056793205
199.1119232 0.0019469677285086596
201.0900116 0.0032963323429602526
203.1059418 0.001968108171587509
213.1274872 0.005387788184541864
231.1014252 0.008077077628468456
241.1210022 0.0025988512437531207
259.0955505 0.009071687402348294
291.1288147 0.0016971152516571078
316.2304382 0.00178992578221453
348.2700195 0.0018224784659910261
355.5857239 0.0018060237310806907


PRECURSORMZ: 357.20603537599993
COMPOUNDNAME: casmi2022challengebonus229
FORMULA: C22H28O4
SMILES: CCC(C)C=C(C)C=CC(=O)OC1C=CC2=CC(=O)C(=CC2(C1C)C)O
INCHIKEY: YYNSFXBSPOJKAH-UHFFFAOYSA-N
PRECURSORTYPE: [M+H]+
PRECURSORINTENSITY: 34160374.76758
IONMODE: positive
CHARGE: 1
PARENTMASS: 356.19875937599994
NUM PEAKS: 94
51.89262009 0.0013000603858025791
53.03908157 0.0027193229275619805
55.01809692 0.005286561658680904
55.05448914 0.01695355741731649
57.07015228 0.07369406367761093
59.04936218 0.0018969806322501426
62.15342712 0.0014707676674521285
63.24534225 0.0015038373123041045
64.62902832 0.001496079928071792
65.03895569 0.0035379636956006373
67.05435944 0.13621207697186752
67.05858612 0.0031001765751532137
69.03360748 0.0324390215272884
69.06994629 0.01774435249818583
77.03903198 0.0016466747525942706
79.05426788 0.03024305685105712
81.05420685 0.002524106102718087
81.05867767 0.0034018687541686036
81.06060791 0.002280000583172235
81.0699234  0.6747427360965141
81.08149719 0.005553524411066152
81.08398438 0.006782562062152494
83.08529663 0.0053354411420391875
91.05425262 0.0056976197115064155
93.07010651 0.016982450741304046
95.04216003 0.0025429072739018466
95.04916382 0.139488570741652
95.05445099 0.0026069035956788637
95.05627441 0.0026025738547684634
95.0855484  0.12732954471614927
95.09104156 0.00144828472220986
95.10254669 0.00135440454995768
95.50301361 0.0013095280095066176
97.06497955 0.001805699082391021
97.10076904 0.0015351757362904446
100.0604095 0.0014298740096487326
104.7382965 0.001701169061650941
105.0698242 0.016636485774239946
107.0855713 0.021305092776194762
108.0929184 0.0018285927512119817
109.0648041 0.07494339371407036
109.1012344 0.04808535909312142
111.0439377 0.003444021090908157
119.0489655 0.007110447413285705
119.0856323 0.011057979789791275
121.10112   0.027224934311083592
123.0810928 0.015201006354933006
123.0955276 0.006978331362919119
123.1167603 1.0
123.1247864 0.014717814474650068
123.1329346 0.007132622597301659
123.1386719 0.007986984137244166
123.1432419 0.007842635422505158
128.0619354 0.027634509132884295
131.0851898 0.001821406470286213
132.2653809 0.0014190845581303442
133.1012421 0.030614101236443
137.0593414 0.0025315435462807986
141.0697021 0.0013684616744631803
143.072113  0.002993185590433602
143.0855103 0.15523847819917155
143.0953522 0.0022892878692371606
143.0988617 0.0027680085633105013
145.1010437 0.007984235472297834
146.0726624 0.008815357406291044
149.095459  0.0021078241945581668
151.0748596 0.0017936711145442403
151.0979004 0.0024227860305448875
151.1116028 0.06476841742087565
155.0600891 0.0016381469929877325
157.1015167 0.0017292248698038604
159.0800476 0.002369081440684148
161.080307  0.0018618669902413483
161.0960083 0.13473036233892055
161.1118469 0.0032495301199441935
171.080307  0.08927733833782386
173.0955505 0.005495050801550982
174.0675201 0.05161231298139383
185.0960236 0.0017549224716330782
187.0765686 0.0016483370930790381
189.0908051 0.06862205058835218
195.1172333 0.0018926379954586061
199.0747986 0.0033684154056793205
199.1119232 0.0019469677285086596
201.0900116 0.0032963323429602526
203.1059418 0.001968108171587509
213.1274872 0.005387788184541864
231.1014252 0.008077077628468456
241.1210022 0.0025988512437531207
259.0955505 0.009071687402348294
291.1288147 0.0016971152516571078
316.2304382 0.00178992578221453
348.2700195 0.0018224784659910261
355.5857239 0.0018060237310806907


