PRECURSORMZ: 773.2134843000001
COMPOUNDNAME: casmi2022challengebonus32
FORMULA: C33H40O21
SMILES: CC1C(C(C(C(O1)OC2C(C(C(OC2OC3=C(OC4=CC(=CC(=C4C3=O)O)OC5C(C(C(C(O5)CO)O)O)O)C6=CC(=C(C=C6)O)O)CO)O)O)O)O)O
INCHIKEY: CGTJNKQXMHSGFN-IUFBPARZSA-N
PRECURSORTYPE: [M+H]+
PRECURSORINTENSITY: 965198.375
IONMODE: positive
CHARGE: 1
PARENTMASS: 772.2062083000001
NUM PEAKS: 23
57.03370285 0.042354308291010646
69.03364563 0.051979099277332054
71.04914856 0.15190267630871654
79.2516861  0.03429251341448632
81.03340149 0.03203098095264795
85.02838898 0.21172414832215594
90.51356506 0.03324379684139951
97.02835846 0.03500369267935806
109.0287628 0.042396592074145624
121.0280991 0.052095172128443445
136.1882172 0.031861214860482344
137.0233917 0.18721623420978464
153.0177612 0.26621964742621224
165.0179291 0.13693292669550902
199.5251312 0.031041455983080127
201.0530243 0.051827517156978274
221.0771179 0.037658910740144026
229.0492859 0.281032169490823
257.0437012 0.14628601602944868
261.9801025 0.0336736060650152
287.0534363 0.3118401158551938
303.0499268 1.0
424.2199402 0.03370240723716979


