PRECURSORMZ: 392.2043577119999
COMPOUNDNAME: casmi2022challengebonus149
FORMULA: C19H31NO6
SMILES: CCCCC(C=CCC=CCCCC(=O)NC(CCC(=O)O)C(=O)O)O
INCHIKEY: WWFRJDFUXORQBA-UHFFFAOYSA-N
PRECURSORTYPE: [M+Na]+
PRECURSORINTENSITY: 1448924.295898
IONMODE: positive
CHARGE: 1
PARENTMASS: 369.2151397119999
NUM PEAKS: 11
53.3906517  0.7865692925629649
71.3791275  0.7463905579609225
75.84129333 0.8185019393744988
77.84023285 0.7200600643597687
171.54245   0.7984637966385023
207.282959  0.7865817429780751
212.0353851 0.7971061678022555
220.0087891 0.9267840889030777
263.48703   1.0
288.1819763 0.9823226338319848
409.4549866 0.812097712636441


PRECURSORMZ: 392.2043577119999
COMPOUNDNAME: casmi2022challengebonus149
FORMULA: C19H31NO6
SMILES: CCCCC(C=CCC=CCCCC(=O)NC(CCC(=O)O)C(=O)O)O
INCHIKEY: WWFRJDFUXORQBA-UHFFFAOYSA-N
PRECURSORTYPE: [M+Na]+
PRECURSORINTENSITY: 1448924.295898
IONMODE: positive
CHARGE: 1
PARENTMASS: 369.2151397119999
NUM PEAKS: 11
53.3906517  0.7865692925629649
71.3791275  0.7463905579609225
75.84129333 0.8185019393744988
77.84023285 0.7200600643597687
171.54245   0.7984637966385023
207.282959  0.7865817429780751
212.0353851 0.7971061678022555
220.0087891 0.9267840889030777
263.48703   1.0
288.1819763 0.9823226338319848
409.4549866 0.812097712636441


