PRECURSORMZ: 345.08271747199996
COMPOUNDNAME: casmi2022challengebonus15
FORMULA: C13H16O8
SMILES: C1=CC(=CC=C1C(=O)O)OC2C(C(C(C(O2)CO)O)O)O
INCHIKEY: XSSDYIMYZONMBL-UHFFFAOYSA-N
PRECURSORTYPE: [M+FA-H]-
PRECURSORINTENSITY: 5360535.162109
IONMODE: negative
CHARGE: -1
PARENTMASS: 300.08451647199996
NUM PEAKS: 9
61.98701477 0.0029640274514578287
64.74216461 0.002739326120547682
73.40631866 0.0028174391886282763
93.03317261 0.16956350800054104
136.9975433 0.010884275626267263
137.0230865 1.0
138.5288544 0.0030660234519886125
188.6499786 0.002961549355807628
216.7972717 0.01244647814210584


PRECURSORMZ: 345.08271747199996
COMPOUNDNAME: casmi2022challengebonus15
FORMULA: C13H16O8
SMILES: C1=CC(=CC=C1C(=O)O)OC2C(C(C(C(O2)CO)O)O)O
INCHIKEY: XSSDYIMYZONMBL-UHFFFAOYSA-N
PRECURSORTYPE: [M+FA-H]-
PRECURSORINTENSITY: 5360535.162109
IONMODE: negative
CHARGE: -1
PARENTMASS: 300.08451647199996
NUM PEAKS: 9
61.98701477 0.0029640274514578287
64.74216461 0.002739326120547682
73.40631866 0.0028174391886282763
93.03317261 0.16956350800054104
136.9975433 0.010884275626267263
137.0230865 1.0
138.5288544 0.0030660234519886125
188.6499786 0.002961549355807628
216.7972717 0.01244647814210584


