PRECURSORMZ: 455.1489144239999
COMPOUNDNAME: casmi2022challengebonus2
FORMULA: C28H22O6
SMILES: C1=CC(=CC=C1C=C2C(C(C3=C2C=C(C=C3O)O)C4=CC=C(C=C4)O)C5=CC(=CC(=C5)O)O)O
INCHIKEY: BIQMSWPBPAKGSE-UHFFFAOYSA-N
PRECURSORTYPE: [M+H]+
PRECURSORINTENSITY: 2239314.418945
IONMODE: positive
CHARGE: 1
PARENTMASS: 454.1416384239999
NUM PEAKS: 31
58.33446503 0.016898107523788293
66.54639435 0.01622288380116909
107.0491486 1.0
123.0443573 0.039646153190181416
144.5936737 0.020889462612574072
147.0440826 0.0698985071042933
180.40242   0.02045190836228893
199.0749207 0.03496811499681755
215.070694  0.11966807900156091
219.3999939 0.03739398472028114
223.0773926 0.02849919935566862
239.0702209 0.17962073692086059
249.050827  0.017585405043198193
251.0699005 0.2798329594394885
252.0788879 0.07741712685489292
255.0663605 0.08800469415840263
267.0657043 0.261460894364625
277.0870667 0.09441898141334781
291.1025696 0.10304910304450766
297.0929871 0.027316430807961072
301.0865784 0.024982610606012652
315.1019287 0.12874160454847883
319.0975342 0.07399240039383045
325.086853  0.07563250262315142
331.0946655 0.02487452449381797
332.1051331 0.030672231922301806
333.1126404 0.09394364246867895
343.0974121 0.23124923725306631
348.0982971 0.10034084244722606
349.1074219 0.08081674592642239
361.1069641 0.4767475470233121


PRECURSORMZ: 455.1489144239999
COMPOUNDNAME: casmi2022challengebonus2
FORMULA: C28H22O6
SMILES: C1=CC(=CC=C1C=C2C(C(C3=C2C=C(C=C3O)O)C4=CC=C(C=C4)O)C5=CC(=CC(=C5)O)O)O
INCHIKEY: BIQMSWPBPAKGSE-UHFFFAOYSA-N
PRECURSORTYPE: [M+H]+
PRECURSORINTENSITY: 2239314.418945
IONMODE: positive
CHARGE: 1
PARENTMASS: 454.1416384239999
NUM PEAKS: 31
58.33446503 0.016898107523788293
66.54639435 0.01622288380116909
107.0491486 1.0
123.0443573 0.039646153190181416
144.5936737 0.020889462612574072
147.0440826 0.0698985071042933
180.40242   0.02045190836228893
199.0749207 0.03496811499681755
215.070694  0.11966807900156091
219.3999939 0.03739398472028114
223.0773926 0.02849919935566862
239.0702209 0.17962073692086059
249.050827  0.017585405043198193
251.0699005 0.2798329594394885
252.0788879 0.07741712685489292
255.0663605 0.08800469415840263
267.0657043 0.261460894364625
277.0870667 0.09441898141334781
291.1025696 0.10304910304450766
297.0929871 0.027316430807961072
301.0865784 0.024982610606012652
315.1019287 0.12874160454847883
319.0975342 0.07399240039383045
325.086853  0.07563250262315142
331.0946655 0.02487452449381797
332.1051331 0.030672231922301806
333.1126404 0.09394364246867895
343.0974121 0.23124923725306631
348.0982971 0.10034084244722606
349.1074219 0.08081674592642239
361.1069641 0.4767475470233121


