PRECURSORMZ: 959.5210062760003
COMPOUNDNAME: casmi2022challengebonus191
FORMULA: C48H78O19
SMILES: CC1C(C(C(C(O1)OC2C(C(C(OC2OC3C(C(C(OC3OC4CCC5(C(C4(C)CO)CCC6(C5CC=C7C6(CCC8(C7CC(CC8O)(C)CO)C)C)C)C)C(=O)O)O)O)CO)O)O)O)O)O
INCHIKEY: CPKUECAWPOGBJH-PHTWEMEZSA-N
PRECURSORTYPE: [M+H]+
PRECURSORINTENSITY: 1164555.25
IONMODE: positive
CHARGE: 1
PARENTMASS: 958.5137302760003
NUM PEAKS: 40
67.05431366 0.395514529995794
69.03336334 0.04823477672000826
69.07009125 0.10659978395307451
71.04924011 0.662131132235954
72.47034454 0.0438521198077193
73.02845764 0.10178044450757587
75.0436554  0.062339804813172674
79.05430603 0.31405564143847237
81.06999207 0.6345031961236798
82.81956482 0.04897853582577713
83.04920197 0.1900377423439946
85.02848053 1.0
91.0542984  0.3235230874854494
93.06975555 0.6479667513785974
95.01280212 0.5446278374057874
95.08570862 0.7946593872064556
97.02852631 0.08097932323434298
97.06483459 0.055688339565970815
102.5695801 0.047680901115765145
105.0697784 0.8623456899726619
107.0854568 0.6590264600207226
109.1010742 0.39630888333561487
117.0698242 0.08050451901970904
119.0854492 0.7556350998739726
121.1011047 0.426577599813355
123.1168137 0.04988759130588743
131.0854034 0.3276090969196512
133.1011963 0.4509050735706986
141.01828   0.25961643652017824
145.1008911 0.4985150592305743
145.6270752 0.05504980214790722
147.116272  0.34634254282038224
149.1324921 0.1854534870978021
157.1016998 0.10151691298421785
159.116806  0.5001378931529964
161.1338043 0.15106211616397955
171.1171875 0.08590297152346493
173.132843  0.08808920923312376
185.1329041 0.07035491592670275
220.5138702 0.06913305324174501


