PRECURSORMZ: 368.217997028
COMPOUNDNAME: casmi2022challengebonus166
FORMULA: C18H29N3O5
SMILES: CC(C)(C)NCC(C1=CC(=CC(=C1)OC(=O)N(C)C)OC(=O)N(C)C)O
INCHIKEY: ANZXOIAKUNOVQU-UHFFFAOYSA-N
PRECURSORTYPE: [M+H]+
PRECURSORINTENSITY: 81746490.92188
IONMODE: positive
CHARGE: 1
PARENTMASS: 367.210721028
NUM PEAKS: 19
51.75037766 0.00025491920969072755
56.01342773 0.009120519051235143
56.01562119 0.00028549777848736356
57.07015228 0.015340847314632026
72.02674103 0.0013683663451395784
72.0348053  0.01339143022623753
72.03679657 0.005663704649818073
72.04444885 1.0
72.0519104  0.0078123990420107415
72.05397034 0.004008021618872151
72.05685425 0.010053062491218491
116.0497894 0.0004511311478587831
167.2109985 0.00026628097017565897
175.8131256 0.00029284878208026384
231.6615448 0.0002705048574137644
249.0153046 0.0003235940176029175
251.1388092 0.003868994207463778
318.586853  0.00031019456924728306
333.9064331 0.00029185107622391334


