PRECURSORMZ: 341.1241916639999
COMPOUNDNAME: casmi2022challengebonus152
FORMULA: C16H22O8
SMILES: C(CC#CC#CCCC(=O)O)COC1C(C(C(C(O1)CO)O)O)O
INCHIKEY: BAGGOTACEXSWCA-TXUJKZCJSA-N
PRECURSORTYPE: [M-H]-
PRECURSORINTENSITY: 50866627.70703
IONMODE: negative
CHARGE: -1
PARENTMASS: 342.1314676639999
NUM PEAKS: 54
55.01758575 0.015205197291998322
57.03339386 0.016695588406573217
58.00466919 0.016154812134047694
59.00525284 0.016854905179535244
59.01252365 1.0
59.02196503 0.010556984460826351
69.03325653 0.005372548594947036
71.00287628 0.00775397634695074
71.01247406 0.4745644788749782
71.02448273 0.003572426750884905
72.99179077 0.014935772172807647
73.02817535 0.033582697924389227
81.60388947 0.002030604960400291
83.01249695 0.042427806072312
85.02259827 0.00490945557834418
85.02812958 0.10807859718239941
85.03396606 0.0033808161750651686
87.00743866 0.02502847039232815
89.02300262 0.287171504693751
95.01241302 0.04412893645302297
97.02087402 0.0035448502042364277
97.0280838  0.170606440304393
97.03530121 0.0033457078748053135
99.00740051 0.01759202346749827
101.022995  0.2651682113266542
101.0287704 0.004333551366993133
109.6573868 0.0021231578836290125
111.0434113 0.004360038336924097
113.0230255 0.16793613070610017
113.0321045 0.0028523120058587936
117.0695572 0.013856985028744577
117.7950897 0.0021882268160418835
119.0335617 0.050985853669072934
123.0803223 0.0030055166389333266
128.3990173 0.0028598324854787684
133.0650787 0.002691126296063889
135.0797272 0.016989727569627473
135.6420593 0.0023310255550516375
149.0597076 0.013879663935321376
153.0910492 0.0028531497361554336
161.0594482 0.07119154620205619
162.0666809 0.003017049204784143
163.0756531 0.002341465452929215
179.0702362 0.05159001741274518
181.0849304 0.016087424214338668
197.0810699 0.005177800940100175
216.8011475 0.012697957614773247
221.0819092 0.004858429129577805
247.1609344 0.0020564053078871085
249.1797485 0.001969629214220896
304.2879028 0.0027863347897836913
341.0850525 0.002071112047833536
341.1238098 0.16327355699194385
341.8706055 0.0021841399941583744


