PRECURSORMZ: 227.091399548
COMPOUNDNAME: casmi2022challengebonus203
FORMULA: C11H14O5
SMILES: CC=CC1C(C(C2=C(O1)C(OC2=O)C)O)O
INCHIKEY: DXUWKSUWEMSKDA-QZXZYWPKSA-N
PRECURSORTYPE: [M+H]+
PRECURSORINTENSITY: 11551821.81445
IONMODE: positive
CHARGE: 1
PARENTMASS: 226.084123548
NUM PEAKS: 69
50.73849869 0.005912659726572743
53.00259399 0.010576925425851012
53.03889465 0.22688757458194844
53.19635773 0.0054855939995663945
55.01054001 0.00552158978254197
55.01812363 1.0
55.02067184 0.01797603158995335
55.05440521 0.05267807308645464
55.18323135 0.006417715674688127
57.03370285 0.042777175436070645
57.07012558 0.00948866222378382
62.25834656 0.006162392180249298
62.928936   0.009697334880926995
65.03871918 0.012203449741206743
67.05435944 0.11862811573160503
68.99708557 0.029709024281289815
69.03358459 0.3172447996583368
71.01278687 0.02810980592825861
71.03969574 0.005800905446324413
71.04909515 0.01532130766463445
79.02112579 0.013960538130340506
79.05427551 0.18376934495901512
81.03353882 0.2640429350692847
81.06991577 0.1832859563074123
83.01277161 0.47866442596597497
83.04914093 0.1466245516297673
91.05423737 0.1326088244712342
93.06996155 0.07504334551877194
95.04920959 0.05183639278146785
95.08555603 0.08731879733145528
95.76612091 0.005901002795288002
97.02842712 0.6231703464432133
97.03442383 0.009608259929498037
99.00762177 0.012655281194429971
99.04446411 0.008351570739133599
101.0229721 0.009326869424395428
103.0541153 0.03506494857749692
105.0447311 0.014017245557176775
105.0621109 0.008354267157389347
105.06987   0.15789084544795068
107.0492554 0.061682782161722745
107.0857468 0.015511603355905434
109.0284271 0.24734364281562343
109.0650711 0.045551648346673426
114.1564865 0.0067620209715617
115.0541763 0.07914036605980326
117.0697861 0.11794549748970044
119.0493469 0.010001913882659336
119.0592194 0.006819426665671129
120.9982529 0.010413710878654977
121.0645905 0.05971817041995388
123.0806351 0.05997812475010856
125.0232697 0.9121799462188803
125.0318146 0.012382762255572556
125.0593643 0.008253245322166692
127.0288315 0.01056575525058882
127.0389175 0.17596042804363737
127.0493164 0.009773116140172
127.0748596 0.011231954756606332
135.0437927 0.02499450855162116
135.0802155 0.03876660556615583
137.0113068 0.043097299814322816
139.0087585 0.10928006926856171
143.0338898 0.11815770350531124
148.2894135 0.007233029211345313
157.0191498 0.04309801419006846
158.9534912 0.05173560697038883
191.384903  0.006308418286710383
220.4957581 0.010485517547354316


