PRECURSORMZ: 173.092068244
COMPOUNDNAME: casmi2022challengebonus27
FORMULA: C7H12N2O3
SMILES: C1CC(NC1)C(=O)NCC(=O)O
INCHIKEY: RNKSNIBMTUYWSH-YFKPBYRVSA-N
PRECURSORTYPE: [M+H]+
PRECURSORINTENSITY: 6319040.607422
IONMODE: positive
CHARGE: 1
PARENTMASS: 172.084792244
NUM PEAKS: 55
55.93458939 0.05648782193159779
62.181633   0.002622895270405345
70.05308533 0.005498995934217825
70.06516266 1.0
70.07454681 0.012118467494400395
70.95805359 0.017018559835489375
71.92926025 0.04527749571145669
72.93701935 0.036331288516160284
73.94502258 0.01156168002723846
88.96844482 0.04882705208344675
89.93984222 0.04159161746954392
90.90328979 0.005061865900782028
90.94776154 0.033050742591794066
91.95552063 0.011390836054892162
96.96099091 0.004421405508263043
103.9433746 0.003523160527305533
105.9282684 0.0028596966640532743
105.9347153 0.18670276386380413
105.9428558 0.005230888565962726
106.9425201 0.003647072338806212
107.950325  0.02183488369959778
112.0757599 0.0040796324993202316
113.0231094 0.020601076856542874
113.9636459 0.053869576937309635
114.9713745 0.03346511968619244
116.5518265 0.0027231417413902414
117.9347992 0.022281536268003044
119.9504318 0.004863199800980447
123.9452362 0.07350311902872268
125.9607239 0.005169290396168777
126.9711456 0.0027194254241299453
128.9390259 0.005959236642647444
128.9422455 0.007930747464647205
128.950592  0.5244448832879334
131.9295959 0.03840352589779
131.9505768 0.0036693594636788983
131.9742737 0.01690640320421043
135.9454193 0.015693681807835973
136.9534912 0.0028432177961011506
141.0001221 0.0042717078676255665
141.0184937 0.0027996360597135265
141.9584198 0.0035421476253752896
142.9666595 0.0037160119612361328
145.0642853 0.003003351538450152
146.9610748 0.17983289111731227
146.9745026 0.0040938728957015825
149.9401093 0.04462519507446576
149.9607239 0.076218961849602
150.0144348 0.004839902392478474
157.0246887 0.0051391881389653594
159.0290833 0.02047646821734864
167.9716187 0.022680806883773875
173.0778351 0.07534422635514015
173.0922394 0.3501687152686162
220.6049805 0.003169094277626743


