PRECURSORMZ: 402.1758623479999
COMPOUNDNAME: casmi2022challengebonus9
FORMULA: C18H24O9
SMILES: CCCCC1(C2=C(C=CC=C2OC3C(C(C(C(O3)CO)O)O)O)C(=O)O1)O
INCHIKEY: VDPAKISICIIDIJ-MPCGSQQASA-N
PRECURSORTYPE: [M+NH4]+
PRECURSORINTENSITY: 8761803.035156
IONMODE: positive
CHARGE: 1
PARENTMASS: 384.1420393479999
NUM PEAKS: 24
51.26950073 0.007885254621533262
56.46367645 0.005796822580969366
64.57257843 0.007285906541638414
85.02845764 0.04621204023045025
91.08478546 0.00610556906837326
97.02793884 0.009493102494691692
103.8679886 0.006457355815730513
131.0856781 0.011596066351937046
133.0646515 0.03207153969725397
145.7551575 0.006690754790214912
149.0099335 0.012659219966340786
149.0233154 0.2868593841262294
151.0389252 0.008796388370206753
159.0802307 0.07259355627807618
160.4987335 0.006377515338479223
161.0956116 0.011849951907577169
163.0389252 0.15224297331111042
169.0637665 0.011304258173039509
177.091156  0.06019504315597466
187.0752563 0.16713784556207098
205.0857849 1.0
220.4350281 0.01099108018639208
268.7378235 0.0060173533047481065
269.4373169 0.006843019180100756


PRECURSORMZ: 402.1758623479999
COMPOUNDNAME: casmi2022challengebonus9
FORMULA: C18H24O9
SMILES: CCCCC1(C2=C(C=CC=C2OC3C(C(C(C(O3)CO)O)O)O)C(=O)O1)O
INCHIKEY: VDPAKISICIIDIJ-MPCGSQQASA-N
PRECURSORTYPE: [M+NH4]+
PRECURSORINTENSITY: 8761803.035156
IONMODE: positive
CHARGE: 1
PARENTMASS: 384.1420393479999
NUM PEAKS: 24
51.26950073 0.007885254621533262
56.46367645 0.005796822580969366
64.57257843 0.007285906541638414
85.02845764 0.04621204023045025
91.08478546 0.00610556906837326
97.02793884 0.009493102494691692
103.8679886 0.006457355815730513
131.0856781 0.011596066351937046
133.0646515 0.03207153969725397
145.7551575 0.006690754790214912
149.0099335 0.012659219966340786
149.0233154 0.2868593841262294
151.0389252 0.008796388370206753
159.0802307 0.07259355627807618
160.4987335 0.006377515338479223
161.0956116 0.011849951907577169
163.0389252 0.15224297331111042
169.0637665 0.011304258173039509
177.091156  0.06019504315597466
187.0752563 0.16713784556207098
205.0857849 1.0
220.4350281 0.01099108018639208
268.7378235 0.0060173533047481065
269.4373169 0.006843019180100756


