PRECURSORMZ: 403.23264404799994
COMPOUNDNAME: casmi2022challengebonus5
FORMULA: C20H34O8
SMILES: CCCCOC(=O)CC(CC(=O)OCCCC)(C(=O)OCCCC)OC(=O)C
INCHIKEY: QZCLKYGREBVARF-UHFFFAOYSA-N
PRECURSORTYPE: [M+H]+
PRECURSORINTENSITY: 46630644.91016
IONMODE: positive
CHARGE: 1
PARENTMASS: 402.22536804799995
NUM PEAKS: 24
57.07008362 0.22122753775704113
57.07334137 0.006322352423623169
58.35467529 0.005321731471066638
58.35754013 0.004670198389702612
61.02858734 0.05774650290253185
68.99716187 0.6619087200219346
69.00052643 0.011083571242867012
69.00605774 0.0058832512391200015
87.00761414 0.10951866301658965
87.91104889 0.004213500770950707
110.6956635 0.005146938864796171
111.0075378 0.5039225511087068
116.6175842 0.0044767480227458625
128.9897919 0.004376304964017314
128.9943542 0.0035236654429788355
129.0180511 1.0
129.0411224 0.006352564418516135
129.7127991 0.003962521686867928
135.7100677 0.005231720644462718
139.0024109 0.45837919748936357
157.0130005 0.022324145191971213
221.1267853 0.006937543777974854
270.31427   0.004620165352709392
372.4014282 0.004410535974346926


PRECURSORMZ: 403.23264404799994
COMPOUNDNAME: casmi2022challengebonus5
FORMULA: C20H34O8
SMILES: CCCCOC(=O)CC(CC(=O)OCCCC)(C(=O)OCCCC)OC(=O)C
INCHIKEY: QZCLKYGREBVARF-UHFFFAOYSA-N
PRECURSORTYPE: [M+H]+
PRECURSORINTENSITY: 46630644.91016
IONMODE: positive
CHARGE: 1
PARENTMASS: 402.22536804799995
NUM PEAKS: 24
57.07008362 0.22122753775704113
57.07334137 0.006322352423623169
58.35467529 0.005321731471066638
58.35754013 0.004670198389702612
61.02858734 0.05774650290253185
68.99716187 0.6619087200219346
69.00052643 0.011083571242867012
69.00605774 0.0058832512391200015
87.00761414 0.10951866301658965
87.91104889 0.004213500770950707
110.6956635 0.005146938864796171
111.0075378 0.5039225511087068
116.6175842 0.0044767480227458625
128.9897919 0.004376304964017314
128.9943542 0.0035236654429788355
129.0180511 1.0
129.0411224 0.006352564418516135
129.7127991 0.003962521686867928
135.7100677 0.005231720644462718
139.0024109 0.45837919748936357
157.0130005 0.022324145191971213
221.1267853 0.006937543777974854
270.31427   0.004620165352709392
372.4014282 0.004410535974346926


