PRECURSORMZ: 903.2553491120002
COMPOUNDNAME: casmi2022challengebonus117
FORMULA: C42H46O22
SMILES: CC1C(C(C(C(O1)OC2C(C(C(OC2OC3=C(OC4=CC(=CC(=C4C3=O)O)OC5C(C(C(C(O5)CO)O)O)OC(=O)C=CC6=CC=C(C=C6)O)C7=CC=C(C=C7)O)CO)O)O)O)O)O
INCHIKEY: UDSPVVBVMAWQTL-PETBMZKLSA-N
PRECURSORTYPE: [M+H]+
PRECURSORINTENSITY: 2750439.1875
IONMODE: positive
CHARGE: 1
PARENTMASS: 902.2480731120002
NUM PEAKS: 16
69.03356934 0.08538131572238244
70.54244232 0.0034598225960810413
71.04924774 0.05699451057550712
72.47045898 0.003215398631103465
85.02848816 0.05378348193270542
91.05429077 0.022099461652933517
97.02843475 0.006646063142802746
119.049057  0.0797071220997568
127.0389862 0.0420640470715946
147.0439606 1.0
147.0786438 0.0063886557709568635
161.1223145 0.003825913433331478
165.0549011 0.005670371663313704
221.1491699 0.005986142371309485
287.0547791 0.2700190119125578
510.1123657 0.004027899126127545


PRECURSORMZ: 903.2553491120002
COMPOUNDNAME: casmi2022challengebonus117
FORMULA: C42H46O22
SMILES: CC1C(C(C(C(O1)OC2C(C(C(OC2OC3=C(OC4=CC(=CC(=C4C3=O)O)OC5C(C(C(C(O5)CO)O)O)OC(=O)C=CC6=CC=C(C=C6)O)C7=CC=C(C=C7)O)CO)O)O)O)O)O
INCHIKEY: UDSPVVBVMAWQTL-PETBMZKLSA-N
PRECURSORTYPE: [M+H]+
PRECURSORINTENSITY: 2750439.1875
IONMODE: positive
CHARGE: 1
PARENTMASS: 902.2480731120002
NUM PEAKS: 16
69.03356934 0.08538131572238244
70.54244232 0.0034598225960810413
71.04924774 0.05699451057550712
72.47045898 0.003215398631103465
85.02848816 0.05378348193270542
91.05429077 0.022099461652933517
97.02843475 0.006646063142802746
119.049057  0.0797071220997568
127.0389862 0.0420640470715946
147.0439606 1.0
147.0786438 0.0063886557709568635
161.1223145 0.003825913433331478
165.0549011 0.005670371663313704
221.1491699 0.005986142371309485
287.0547791 0.2700190119125578
510.1123657 0.004027899126127545


