PRECURSORMZ: 503.1770117799998
COMPOUNDNAME: casmi2022challengebonus28
FORMULA: C21H30O11
SMILES: CC1C(C(C(C(O1)OCC2C(C(C(C(O2)OC3=C(C=CC(=C3)CC=C)O)O)O)O)O)O)O
INCHIKEY: IXBZGANUFHLILF-OGNZNRKXSA-N
PRECURSORTYPE: [M+FA-H]-
PRECURSORINTENSITY: 25635727.82812
IONMODE: negative
CHARGE: -1
PARENTMASS: 458.1788107799998
NUM PEAKS: 24
52.71914291 0.0033263294355862787
54.86832809 0.0035991247088810836
58.50507355 0.003118376028892913
59.01252365 0.005282886072407379
68.0331192  0.003164142250966794
71.65927124 0.003687737376698794
79.43658447 0.00338933263725935
82.90924835 0.0035213777535290374
108.0202332 0.014138042170573984
122.0361099 0.027280362437630698
130.0404053 0.005562838396244579
131.0491333 0.0043329955368445125
136.6944122 0.003310287417570298
147.0445099 0.030977461897824733
148.051712  0.06373194458959912
149.0314331 0.009609210981285476
149.0595856 1.0
149.0973053 0.006719259676553273
190.8386993 0.003459645206748321
215.709259  0.022120096423646506
300.5709229 0.004084635552749173
306.3580322 0.003477014649638324
388.0233765 0.0038310195369542976
503.9346924 0.0034162735611183415


