PRECURSORMZ: 235.16925594399999
COMPOUNDNAME: casmi2022challengebonus226
FORMULA: C15H22O2
SMILES: CC1(CCCC2=CC=C(CCC21C)C(=O)O)C
INCHIKEY: MQYVSPPZNQTARL-OAHLLOKOSA-N
PRECURSORTYPE: [M+H]+
PRECURSORINTENSITY: 39089753.88281
IONMODE: positive
CHARGE: 1
PARENTMASS: 234.161979944
NUM PEAKS: 75
55.05445099 0.030475345839134946
55.55656052 0.0036398717788498013
57.07012558 0.046104453858241794
58.79021835 0.0032817610034449824
58.79310608 0.00297716723363019
67.05439758 0.026550992975262946
69.06993103 0.21954031826932885
69.07344818 0.0032026568747663183
71.08555603 0.03612935454901313
74.22389984 0.0017750771893133186
77.03927612 0.003455440234465739
79.05419922 0.05779940827946505
81.06993103 0.048766715371276186
81.91452026 0.0018286199081164315
83.0491333  0.0032267728211310457
83.0855484  0.0435309261674137
91.05405426 0.018637343670978534
93.03367615 0.0022613050963987717
93.06296539 0.001979178008415759
93.06987    0.2108283677906337
95.08546448 0.09571845426528919
95.09229279 0.004000996142826048
97.06460571 0.008726621104793348
97.10109711 0.0512457464326791
105.0698242 0.03745523904819172
107.0491028 0.003757132791973618
107.0854492 0.0654419511788869
109.0650177 0.004933553430920039
109.1010361 0.04371654585270969
111.0359344 0.0031895547546652177
111.0440826 0.04694860302482833
111.0803604 0.03225410287494049
111.1164703 0.021766493135975482
119.0854797 0.062121617308349815
121.0646515 0.04182295932139523
121.1014175 0.025907234687303923
123.0439148 0.05224984016514383
123.0802536 0.013696967667524776
123.1170349 0.01592885780051635
125.0597458 0.08294578175432944
125.0956268 0.0033226111088735747
125.1329117 0.002352752710158963
131.0856628 0.0030332427991545037
133.0644836 0.015525310444344801
133.1010742 0.1798004629067085
135.0805969 0.0024618382548052364
135.1171875 0.007118224200372252
137.059845  0.04156346538449011
137.0957184 0.008692769564556802
139.0752411 1.0
139.1011353 0.011768578016622044
143.0844727 0.002498163596607054
147.0800781 0.016490417612689424
147.1165924 0.05279195850261948
149.0956421 0.007970757017228032
149.1320343 0.02177814522132788
151.0752106 0.4182600742281264
151.111969  0.01777486384049905
153.0909424 0.03294995194227143
157.1013947 0.002748412395371089
161.0958252 0.06783567684649242
161.1316528 0.015003787057257936
165.0909424 0.14780962371617698
165.1266327 0.0025051008310242283
167.1063995 0.017146842800809883
175.1113434 0.007818313852708522
179.1064911 0.1021185529942754
189.1489105 0.002317161813909631
189.1634674 0.10390758922032381
193.1220856 0.0378487403472522
199.1481934 0.008342658455439427
217.1576843 0.02320619231585396
221.0814362 0.0034820760757110114
235.0966492 0.0029295916944727957
235.1690674 0.3725626891029686


PRECURSORMZ: 235.16925594399999
COMPOUNDNAME: casmi2022challengebonus226
FORMULA: C15H22O2
SMILES: CC1(CCCC2=CC=C(CCC21C)C(=O)O)C
INCHIKEY: MQYVSPPZNQTARL-OAHLLOKOSA-N
PRECURSORTYPE: [M+H]+
PRECURSORINTENSITY: 39089753.88281
IONMODE: positive
CHARGE: 1
PARENTMASS: 234.161979944
NUM PEAKS: 75
55.05445099 0.030475345839134946
55.55656052 0.0036398717788498013
57.07012558 0.046104453858241794
58.79021835 0.0032817610034449824
58.79310608 0.00297716723363019
67.05439758 0.026550992975262946
69.06993103 0.21954031826932885
69.07344818 0.0032026568747663183
71.08555603 0.03612935454901313
74.22389984 0.0017750771893133186
77.03927612 0.003455440234465739
79.05419922 0.05779940827946505
81.06993103 0.048766715371276186
81.91452026 0.0018286199081164315
83.0491333  0.0032267728211310457
83.0855484  0.0435309261674137
91.05405426 0.018637343670978534
93.03367615 0.0022613050963987717
93.06296539 0.001979178008415759
93.06987    0.2108283677906337
95.08546448 0.09571845426528919
95.09229279 0.004000996142826048
97.06460571 0.008726621104793348
97.10109711 0.0512457464326791
105.0698242 0.03745523904819172
107.0491028 0.003757132791973618
107.0854492 0.0654419511788869
109.0650177 0.004933553430920039
109.1010361 0.04371654585270969
111.0359344 0.0031895547546652177
111.0440826 0.04694860302482833
111.0803604 0.03225410287494049
111.1164703 0.021766493135975482
119.0854797 0.062121617308349815
121.0646515 0.04182295932139523
121.1014175 0.025907234687303923
123.0439148 0.05224984016514383
123.0802536 0.013696967667524776
123.1170349 0.01592885780051635
125.0597458 0.08294578175432944
125.0956268 0.0033226111088735747
125.1329117 0.002352752710158963
131.0856628 0.0030332427991545037
133.0644836 0.015525310444344801
133.1010742 0.1798004629067085
135.0805969 0.0024618382548052364
135.1171875 0.007118224200372252
137.059845  0.04156346538449011
137.0957184 0.008692769564556802
139.0752411 1.0
139.1011353 0.011768578016622044
143.0844727 0.002498163596607054
147.0800781 0.016490417612689424
147.1165924 0.05279195850261948
149.0956421 0.007970757017228032
149.1320343 0.02177814522132788
151.0752106 0.4182600742281264
151.111969  0.01777486384049905
153.0909424 0.03294995194227143
157.1013947 0.002748412395371089
161.0958252 0.06783567684649242
161.1316528 0.015003787057257936
165.0909424 0.14780962371617698
165.1266327 0.0025051008310242283
167.1063995 0.017146842800809883
175.1113434 0.007818313852708522
179.1064911 0.1021185529942754
189.1489105 0.002317161813909631
189.1634674 0.10390758922032381
193.1220856 0.0378487403472522
199.1481934 0.008342658455439427
217.1576843 0.02320619231585396
221.0814362 0.0034820760757110114
235.0966492 0.0029295916944727957
235.1690674 0.3725626891029686


