PRECURSORMZ: 793.401595284
COMPOUNDNAME: casmi2022challengebonus123
FORMULA: C41H62O15
SMILES: CC1(CCC2(CCC3(C(=CCC4C3(CCC5C4(CCC(C5(C)C)OC6C(C(C(C(O6)C(=O)O)O)OC(C(C(=O)O)O)OCC(=O)O)O)C)C)C2C1)C)C(=O)O)C
INCHIKEY: FHMLSFRFOXEUGU-NYEXGJSRSA-N
PRECURSORTYPE: [M-H]-
PRECURSORINTENSITY: 1162917.09375
IONMODE: negative
CHARGE: -1
PARENTMASS: 794.408871284
NUM PEAKS: 16
61.43500137 0.11855021846183575
69.45156097 0.10752333511142685
75.00722504 0.26605623846578375
78.9577713  1.0
88.10726929 0.10803243823388319
108.9361649 0.12223490581372147
128.2276459 0.10186622764573691
130.060379  0.10381526491363986
156.8266144 0.12412654722221564
160.4507294 0.12509614709178876
176.1814728 0.11895036016452223
216.9729156 0.5325699880723707
224.9459991 0.12466424699274764
226.6972809 0.12944346290312728
331.1815491 0.13854454211085765
575.7296753 0.1374790417482536


