PRECURSORMZ: 487.3418005719999
COMPOUNDNAME: casmi2022challengebonus33
FORMULA: C30H46O5
SMILES: CC1CC2C(C(OC3(C1C4(CCC56CC57CCC(=O)C(C7CCC6C4(C3O)C)(C)C)C)O2)(C)C)O
INCHIKEY: IQAAHGZZGBMTBN-UHFFFAOYSA-N
PRECURSORTYPE: [M+H]+
PRECURSORINTENSITY: 16366830.40625
IONMODE: positive
CHARGE: 1
PARENTMASS: 486.3345245719999
NUM PEAKS: 91
55.0544014  0.42117464558803036
57.03381729 0.0681914932159484
59.04956818 0.07442416518294345
59.84643555 0.06010401101927543
59.88869095 0.06334587099137122
67.05422211 0.13791902497407074
69.033638   0.27831621200813633
69.06999969 0.3041129652338094
71.04927826 0.11703931690109509
75.12532806 0.056230756220559834
75.8926239  0.056554813305633014
79.05414581 0.11448564595876039
81.06981659 0.5139169506320775
83.04902649 0.5698810044582525
83.08538818 0.09872053247931173
85.23246002 0.059707225070097965
91.05448151 0.1231017519854274
93.06995392 0.43087650567132685
95.0491333  0.13650294197671609
95.08550262 1.0
97.06483459 0.3829271995728457
97.10134125 0.13857042360124394
100.6988983 0.05427830345531214
105.0699081 0.4320521395110002
107.085556  0.9082070263436322
109.0645752 0.23355917394358858
109.1009445 0.5350975060008039
111.0805435 0.4510712307033105
119.08535   0.7218831646220978
121.1011963 0.7322523187594017
123.0802155 0.7136102787497379
123.1172638 0.0947024084643137
125.0961151 0.3783526347308933
131.0851593 0.41538001145367515
133.1008453 0.6043524682885114
133.3189392 0.0602744608872072
135.0800476 0.12583899380916957
135.1168518 0.27704143913114204
137.0962067 0.25836973812048886
139.075592  0.11203763812879419
139.1117249 0.12949906716936685
143.0857391 0.23208309635919844
145.1011505 0.4005682088234909
147.1163025 0.4233528347128501
149.0959625 0.6163854184994609
149.13237   0.09751908258322278
151.1112366 0.0978206697225356
155.0852203 0.11600259429508089
157.1010132 0.7959788560780974
159.0805359 0.05742217338955786
159.1164551 0.6699894162015517
161.0953979 0.12236954226372042
161.1324615 0.22833020626121087
163.1117859 0.07837626936977704
169.1013489 0.14279886496339433
171.1167145 0.37202576162186624
173.0969696 0.0729603678807096
173.1326447 0.3598750641870339
175.1113586 0.0864130274434438
175.147583  0.10859645757521788
177.1280212 0.09219337475022547
181.1016541 0.09356963510736103
183.116806  0.3006980491266887
185.1324768 0.33343388479927283
187.1104584 0.11908195771753802
187.1483612 0.22664264551557053
189.125824  0.19945164588737554
195.11763   0.08970668206976123
197.1331787 0.14080006548288224
199.1472626 0.11360547873438619
201.1270142 0.21508075145865763
201.163269  0.33194630601041736
203.1428375 0.0989751059231786
209.1326447 0.08626440296059502
211.1480255 0.1116613604189613
213.1633453 0.09012913834859326
215.1806641 0.1385433632624727
216.7528992 0.323776056617672
223.1471863 0.08327298003426777
227.1423035 0.07313744271144627
229.1581421 0.11128752643483582
237.1639862 0.1381085370234769
239.1794739 0.08358866343538927
247.1700287 0.1177998088244247
249.164032  0.08436695644321296
290.8738403 0.06750923974931108
295.2047729 0.057946688845832636
312.2966614 0.06548157516012514
320.5003052 0.06247262018332638
335.2384949 0.07683506313242051
451.3201294 0.0801306458358998


