PRECURSORMZ: 558.1817355759998
COMPOUNDNAME: casmi2022challengebonus122
FORMULA: C24H28O14
SMILES: COC1=CC(=CC(=C1O)OC)C(=O)OCC2C(C(C(C(O2)OC3=C(C=C(C=C3OC)C(=O)O)OC)O)O)O
INCHIKEY: SNDSJLKXRHARRI-BKGYPRMNSA-N
PRECURSORTYPE: [M+NH4]+
PRECURSORINTENSITY: 1379660.5
IONMODE: positive
CHARGE: 1
PARENTMASS: 540.1479125759998
NUM PEAKS: 10
65.03885651 0.173001151755325
67.05416107 0.09461985819773851
82.04114532 0.08444615868052731
85.02835083 0.09470689804902284
103.8081665 0.07804336739305184
140.0469055 0.14084133479967378
171.0647736 0.15803568411227342
181.049408  1.0
221.0782471 0.11041821338687237
442.934021  0.09223823927222372


PRECURSORMZ: 558.1817355759998
COMPOUNDNAME: casmi2022challengebonus122
FORMULA: C24H28O14
SMILES: COC1=CC(=CC(=C1O)OC)C(=O)OCC2C(C(C(C(O2)OC3=C(C=C(C=C3OC)C(=O)O)OC)O)O)O
INCHIKEY: SNDSJLKXRHARRI-BKGYPRMNSA-N
PRECURSORTYPE: [M+NH4]+
PRECURSORINTENSITY: 1379660.5
IONMODE: positive
CHARGE: 1
PARENTMASS: 540.1479125759998
NUM PEAKS: 10
65.03885651 0.173001151755325
67.05416107 0.09461985819773851
82.04114532 0.08444615868052731
85.02835083 0.09470689804902284
103.8081665 0.07804336739305184
140.0469055 0.14084133479967378
171.0647736 0.15803568411227342
181.049408  1.0
221.0782471 0.11041821338687237
442.934021  0.09223823927222372


