PRECURSORMZ: 317.21112075599996
COMPOUNDNAME: casmi2022challengebonus130
FORMULA: C20H28O3
SMILES: CC12CCCC3(C1C(C(C45C2CCC(C4)C(=C)C5)O)OC3=O)C
INCHIKEY: AHKUFTRUMQKIPH-YTBLMUGYSA-N
PRECURSORTYPE: [M+H]+
PRECURSORINTENSITY: 2328681.957031
IONMODE: positive
CHARGE: 1
PARENTMASS: 316.20384475599997
NUM PEAKS: 44
50.67980194 0.05200210372426729
53.03880692 0.056707177663742926
55.05458069 0.5301468225867072
61.78313446 0.05343484339991056
67.05429077 0.35123699721409785
69.06996155 0.20333882824211133
72.06505585 0.05029003490379227
77.75241089 0.04970273209569428
79.05427551 0.33609515825984393
81.06987    0.5532369387991746
91.05432129 0.8553461110439708
93.06996918 0.46208425495700467
95.08531952 0.35391689112979885
97.10129547 0.23847155691686034
105.0699768 1.0
107.085495  0.25867061538722536
109.1010132 0.34331871444494366
117.0695877 0.25309693099536057
119.0854111 0.8747917219407676
121.1014862 0.08836791852412422
123.1158218 0.07616000297846207
126.2983398 0.0531219508153336
129.0695496 0.1189008327099796
131.0849457 0.33800015810506184
133.0645294 0.17590049490032472
133.100769  0.36231978602648574
143.0857239 0.33781197110664973
145.10112   0.34681954353459604
147.0800781 0.2825492893404833
147.1164551 0.284341132133682
155.0855408 0.3436651595383262
157.1004333 0.26730177009460243
159.1167145 0.11186077415164129
161.0954132 0.05614788537977714
169.1013489 0.45418560414934844
171.116333  0.23952759466759196
173.1317596 0.08039622173500423
183.117218  0.1991462239211909
185.1311951 0.05108369739180865
197.1320801 0.24713191908588691
199.1469879 0.05212402192168602
211.1486816 0.06506724515221778
218.1969299 0.0988520308892529
310.9822388 0.05030151238685063


PRECURSORMZ: 317.21112075599996
COMPOUNDNAME: casmi2022challengebonus130
FORMULA: C20H28O3
SMILES: CC12CCCC3(C1C(C(C45C2CCC(C4)C(=C)C5)O)OC3=O)C
INCHIKEY: AHKUFTRUMQKIPH-YTBLMUGYSA-N
PRECURSORTYPE: [M+H]+
PRECURSORINTENSITY: 2328681.957031
IONMODE: positive
CHARGE: 1
PARENTMASS: 316.20384475599997
NUM PEAKS: 44
50.67980194 0.05200210372426729
53.03880692 0.056707177663742926
55.05458069 0.5301468225867072
61.78313446 0.05343484339991056
67.05429077 0.35123699721409785
69.06996155 0.20333882824211133
72.06505585 0.05029003490379227
77.75241089 0.04970273209569428
79.05427551 0.33609515825984393
81.06987    0.5532369387991746
91.05432129 0.8553461110439708
93.06996918 0.46208425495700467
95.08531952 0.35391689112979885
97.10129547 0.23847155691686034
105.0699768 1.0
107.085495  0.25867061538722536
109.1010132 0.34331871444494366
117.0695877 0.25309693099536057
119.0854111 0.8747917219407676
121.1014862 0.08836791852412422
123.1158218 0.07616000297846207
126.2983398 0.0531219508153336
129.0695496 0.1189008327099796
131.0849457 0.33800015810506184
133.0645294 0.17590049490032472
133.100769  0.36231978602648574
143.0857239 0.33781197110664973
145.10112   0.34681954353459604
147.0800781 0.2825492893404833
147.1164551 0.284341132133682
155.0855408 0.3436651595383262
157.1004333 0.26730177009460243
159.1167145 0.11186077415164129
161.0954132 0.05614788537977714
169.1013489 0.45418560414934844
171.116333  0.23952759466759196
173.1317596 0.08039622173500423
183.117218  0.1991462239211909
185.1311951 0.05108369739180865
197.1320801 0.24713191908588691
199.1469879 0.05212402192168602
211.1486816 0.06506724515221778
218.1969299 0.0988520308892529
310.9822388 0.05030151238685063


