PRECURSORMZ: 337.27372101199995
COMPOUNDNAME: casmi2022challengebonus132
FORMULA: C21H36O3
SMILES: CCC(C)C1C(=CC2C(C1(C)C(=O)CCO)C(CC(C2O)C)C)C
INCHIKEY: INRRKSNDPRKXCH-UHFFFAOYSA-N
PRECURSORTYPE: [M+H]+
PRECURSORINTENSITY: 5055476.648437
IONMODE: positive
CHARGE: 1
PARENTMASS: 336.26644501199996
NUM PEAKS: 49
50.27968979 0.02055009123587932
55.01805878 0.03312220521254861
55.05449677 0.4400509936741301
57.07009125 0.3358733381222574
58.98340607 0.023510379893510656
59.8794136  0.02220590843655602
67.05435944 0.2873011676254042
69.06999207 0.3855413043044231
71.08563995 0.041690970104239604
73.02852631 0.1840186186475269
73.03223419 0.023136943332105843
77.28399658 0.0199983515118867
79.05414581 0.14542659960405632
81.06983185 0.3935442227258941
83.08550262 0.12020566346743232
89.29007721 0.02438603370715521
91.05437469 0.2339565727817184
93.0699234  0.31215350061871894
95.08553314 0.5767571439731672
97.06452179 0.028790807614406107
97.10110474 0.03691093189419289
101.7126312 0.023253038565695956
105.069809  0.3958405700846556
107.0855026 0.7866139161516337
109.064949  0.039444145217233134
109.1010818 0.2634784588302339
111.0805664 0.024966328654287495
115.8263168 0.025633153953028988
117.0698624 0.03583845415038778
119.0855103 1.0
121.1010742 0.3059789034943433
123.0807266 0.05017206554204049
123.1169662 0.13057724153168582
131.0853729 0.11449412177657871
133.1011047 0.2763903903177466
135.1168671 0.10658263184653285
137.0957031 0.029348325693616215
143.0846252 0.03809020306590001
145.1007385 0.239512865186872
147.1163177 0.1774829260994346
157.1012268 0.03505616012431236
159.1170349 0.12395914011115484
161.1319122 0.15748128413527102
171.1179352 0.03136547131620328
186.5886841 0.03278051594954448
187.1472778 0.030403313039639352
214.0566406 0.026528128494714028
216.0473633 0.13789174866615264
279.1343384 0.02812002393523139


