PRECURSORMZ: 608.4379179119999
COMPOUNDNAME: casmi2022challengebonus129
FORMULA: C30H61NO8
SMILES: CC(C(CCCCCCCCCCCCCCCCCCC(C(C)OC1C(C(C(C(O1)CO)O)O)O)O)O)N
INCHIKEY: ZZGSDJOIQPLEJT-UHFFFAOYSA-N
PRECURSORTYPE: [M+FA-H]-
PRECURSORINTENSITY: 18563279.52344
IONMODE: negative
CHARGE: -1
PARENTMASS: 563.4397169119999
NUM PEAKS: 23
55.49821472 0.026879419872073325
59.01248932 1.0
64.32969666 0.029888960028139937
71.0124588  0.607994811320326
71.39968872 0.022999924806408924
73.02817535 0.11311089159186062
77.82353973 0.03133799411145754
80.22846985 0.023580916483949964
83.0125351  0.04394111499200054
85.02811432 0.12469932978291833
89.02301788 0.5729778510092112
101.0230331 0.6218532684652434
105.0384216 0.022830954620412788
106.0038452 0.028423778542510485
113.022934  0.2505295363303013
119.0337601 0.22191609326898634
161.4364777 0.02926726847039432
184.8372192 0.028275990283117218
220.1401825 0.02572928788658757
220.7259979 0.03673836760262433
410.3735352 0.029965547758514982
510.964325  0.027158011084644676
539.1141357 0.026561844825423862


