PRECURSORMZ: 675.40786812
COMPOUNDNAME: casmi2022challengebonus109
FORMULA: C36H60O10
SMILES: CC1(C2CCC3=C(C2(CC(C1O)OC(=O)CC(C)(CC(=O)O)O)C)CC(C4(C3(CCC4C(CCC(C(C)(C)O)O)CO)C)C)O)C
INCHIKEY: FLXWNHMMKNTKDN-UHFFFAOYSA-N
PRECURSORTYPE: [M+Na]+
PRECURSORINTENSITY: 685941.0429688
IONMODE: positive
CHARGE: 1
PARENTMASS: 652.4186501199999
NUM PEAKS: 11
60.51148605 0.08978384474466318
107.2833405 0.12553529321251464
119.0859375 0.13427771090105678
121.285408  0.1186436282876243
136.5319366 0.11296609257005388
160.0729828 0.11946337111588654
185.0415039 0.6648574557114025
265.5307617 0.14355045727657864
348.2773132 0.12753289533737072
513.3547363 1.0
653.2145996 0.11623641089207491


