PRECURSORMZ: 273.09821624399996
COMPOUNDNAME: casmi2022challengebonus224
FORMULA: C13H12N4O3
SMILES: C1=CC(=CN=C1)CNC(=O)NC2=CC=C(C=C2)[N+](=O)[O-]
INCHIKEY: CLKZWXHKFXZIMA-UHFFFAOYSA-N
PRECURSORTYPE: [M+H]+
PRECURSORINTENSITY: 40418962.10156
IONMODE: positive
CHARGE: 1
PARENTMASS: 272.09094024399997
NUM PEAKS: 45
54.03427887 0.0014933382121693703
56.01335526 0.01388240760814278
65.03871155 0.011628330632449247
66.04656982 0.0008941392049285929
67.04167938 0.0009089723076937255
68.04949188 0.0021529726095498303
79.04231262 0.0018128821080664011
80.04945374 0.05864831486205858
80.0537262  0.001025821671877625
82.06522369 0.003223999596648463
92.03205872 0.0006242871700396625
92.04948425 0.0749308839040121
92.05434418 0.001389281674061721
92.06299591 0.0005019625105963654
93.03938293 0.0021981418437477117
93.04290771 0.0007420924790885133
93.05729675 0.27815636453767084
93.06806946 0.0029860007545962526
93.07124329 0.0033964782130731625
107.0602493 0.013387259476068803
108.0447769 0.0031443890033977955
108.068306  0.0008241137053596133
109.0526733 0.008072021253246114
109.0759811 0.10496284551627837
109.0828934 0.0014960827969016073
110.0600433 0.010747507752028852
117.0444336 0.0017113522123674424
119.0607147 0.00043966927136230595
120.0553665 0.0005862502884928586
122.0216827 0.00047175197510174497
122.0473785 0.10282260335955629
122.0556335 0.0021016509946148554
122.0682297 0.0007013899299351705
134.0476685 0.0006121169843097991
135.0237122 0.007333622305977887
135.0296021 0.0025675021449019482
135.05513   1.0
135.0646057 0.013194631468908712
135.0739594 0.008973085102245348
135.0792236 0.011425567579151837
135.0927582 0.0024131936404866196
135.1070557 0.0006168371668565073
139.0503387 0.004555466042402361
227.1052856 0.005566525883670401
242.0919342 0.002124338030044015


PRECURSORMZ: 273.09821624399996
COMPOUNDNAME: casmi2022challengebonus224
FORMULA: C13H12N4O3
SMILES: C1=CC(=CN=C1)CNC(=O)NC2=CC=C(C=C2)[N+](=O)[O-]
INCHIKEY: CLKZWXHKFXZIMA-UHFFFAOYSA-N
PRECURSORTYPE: [M+H]+
PRECURSORINTENSITY: 40418962.10156
IONMODE: positive
CHARGE: 1
PARENTMASS: 272.09094024399997
NUM PEAKS: 45
54.03427887 0.0014933382121693703
56.01335526 0.01388240760814278
65.03871155 0.011628330632449247
66.04656982 0.0008941392049285929
67.04167938 0.0009089723076937255
68.04949188 0.0021529726095498303
79.04231262 0.0018128821080664011
80.04945374 0.05864831486205858
80.0537262  0.001025821671877625
82.06522369 0.003223999596648463
92.03205872 0.0006242871700396625
92.04948425 0.0749308839040121
92.05434418 0.001389281674061721
92.06299591 0.0005019625105963654
93.03938293 0.0021981418437477117
93.04290771 0.0007420924790885133
93.05729675 0.27815636453767084
93.06806946 0.0029860007545962526
93.07124329 0.0033964782130731625
107.0602493 0.013387259476068803
108.0447769 0.0031443890033977955
108.068306  0.0008241137053596133
109.0526733 0.008072021253246114
109.0759811 0.10496284551627837
109.0828934 0.0014960827969016073
110.0600433 0.010747507752028852
117.0444336 0.0017113522123674424
119.0607147 0.00043966927136230595
120.0553665 0.0005862502884928586
122.0216827 0.00047175197510174497
122.0473785 0.10282260335955629
122.0556335 0.0021016509946148554
122.0682297 0.0007013899299351705
134.0476685 0.0006121169843097991
135.0237122 0.007333622305977887
135.0296021 0.0025675021449019482
135.05513   1.0
135.0646057 0.013194631468908712
135.0739594 0.008973085102245348
135.0792236 0.011425567579151837
135.0927582 0.0024131936404866196
135.1070557 0.0006168371668565073
139.0503387 0.004555466042402361
227.1052856 0.005566525883670401
242.0919342 0.002124338030044015


