PRECURSORMZ: 516.2591931439998
COMPOUNDNAME: casmi2022challengebonus44
FORMULA: C28H37NO8
SMILES: CC1CCC2C(C(CCC2(C13CC4=C(C=C5CN(C(=O)C5=C4O3)C(CCC(=O)O)C(=O)O)O)C)O)(C)C
INCHIKEY: PFSIWOQTKVCWEC-UHFFFAOYSA-N
PRECURSORTYPE: [M+H]+
PRECURSORINTENSITY: 37311644.76367
IONMODE: positive
CHARGE: 1
PARENTMASS: 515.2519171439998
NUM PEAKS: 72
54.01405716 0.01115752189916174
54.01729584 0.007652233171995133
55.01841354 0.003208088595558947
61.01263428 0.005622559044307641
61.01580429 0.004824298783651955
67.0544281  0.004412711260755191
67.9719696  0.0027489800096211128
68.04957581 0.338086810465855
68.05298615 0.004486816694058834
79.05417633 0.006661626220416845
81.0699234  0.010420818336572216
85.02828979 0.01644392213114454
88.92960358 0.0033352620541669837
91.05434418 0.01104387065035299
93.06983948 0.020534385988570686
95.04940033 0.003179480707188075
95.08573151 0.02200267792430945
100.1952667 0.0026916244388821785
105.0700302 0.011577919303300066
107.08535   0.019988208300091168
109.1008682 0.012011386175315133
119.0856247 0.0064100192655445025
121.10112   0.014725044372139713
123.1164017 0.003379249188503472
132.0438385 0.00322023415220014
132.0805969 0.004732293364443614
133.0270996 0.0036151677620484043
133.1008759 0.00419524295312189
134.0598602 0.003528817010023801
135.1165466 0.00589384136884818
146.0605316 0.0043598383116195795
149.0232239 0.30228517129532895
149.0460968 0.004734203458786159
150.0553131 0.012824531001814821
160.0391541 0.006158887610262388
160.0757751 0.02277463562669232
161.0223236 0.0030541229819745575
162.0548401 0.003416169418571654
167.0170135 0.004059312671448442
167.0337372 0.26471549898384505
167.0502167 0.004324712528132685
170.0597687 0.010317766014454638
172.0762939 0.0036991725166303333
174.0106201 0.002918622884555901
174.0554962 0.011539087072607559
175.8179779 0.002745471498006853
176.0333405 0.004877396674037487
177.0419312 0.0646936169023895
178.0497437 0.2657279938628097
179.0342407 0.011114676309897204
187.0750275 0.0028846068747780396
188.070282  0.0814920464434089
190.0500488 0.02036252706106779
198.055069  0.040507778666675556
200.0705566 0.015653744187518102
202.0504608 0.010595367027665262
215.0566559 0.005393344546065813
216.0653687 1.0
216.1151733 0.006485183956090004
218.0811005 0.006317369523094863
220.4683228 0.00403458470192507
226.0493164 0.00341468887305664
226.0883331 0.0027050907310825476
230.0818024 0.003359683112323938
244.0602722 0.8231749695421923
244.0914459 0.01580854443480809
244.1039734 0.006193796713053738
255.0891113 0.011411718220117209
256.0971375 0.005478673531056878
262.0707397 0.039902219029926043
268.0968018 0.0048967752991754205
270.112915  0.014519005812339562


