PRECURSORMZ: 237.109729056
COMPOUNDNAME: casmi2022challengebonus182
FORMULA: C11H18O4
SMILES: CC(CCC=C(CO)C(=O)OC)(C=C)O
INCHIKEY: ZMYLTLIECAVXTL-LLVKDONJSA-N
PRECURSORTYPE: [M+Na]+
PRECURSORINTENSITY: 34323630.57031
IONMODE: positive
CHARGE: 1
PARENTMASS: 214.120511056
NUM PEAKS: 15
53.46569443 0.14789811622421623
62.01860428 0.2175652568330427
70.49239349 0.1776534908822275
72.93735504 0.1757694625726774
80.97228241 0.20548677836053209
83.342659   0.16493220831393313
88.32542419 0.17580996250148986
105.9166794 0.25621459863705
108.9952164 0.1681627871069763
118.9248734 1.0
134.0943298 0.18727895793010016
136.9354401 0.28863649919000145
179.925705  0.19085728536961963
221.0703583 0.25077729079526084
237.1087494 0.9011228388814708


PRECURSORMZ: 237.109729056
COMPOUNDNAME: casmi2022challengebonus182
FORMULA: C11H18O4
SMILES: CC(CCC=C(CO)C(=O)OC)(C=C)O
INCHIKEY: ZMYLTLIECAVXTL-LLVKDONJSA-N
PRECURSORTYPE: [M+Na]+
PRECURSORINTENSITY: 34323630.57031
IONMODE: positive
CHARGE: 1
PARENTMASS: 214.120511056
NUM PEAKS: 15
53.46569443 0.14789811622421623
62.01860428 0.2175652568330427
70.49239349 0.1776534908822275
72.93735504 0.1757694625726774
80.97228241 0.20548677836053209
83.342659   0.16493220831393313
88.32542419 0.17580996250148986
105.9166794 0.25621459863705
108.9952164 0.1681627871069763
118.9248734 1.0
134.0943298 0.18727895793010016
136.9354401 0.28863649919000145
179.925705  0.19085728536961963
221.0703583 0.25077729079526084
237.1087494 0.9011228388814708


