PRECURSORMZ: 338.12102201199997
COMPOUNDNAME: casmi2022challengebonus94
FORMULA: C14H21NO7
SMILES: C1CC(=CC#N)C(CC1O)OC2C(C(C(C(O2)CO)O)O)O
INCHIKEY: XUADVCPTUKSFOK-BKZLMLJWSA-N
PRECURSORTYPE: [M+Na]+
PRECURSORINTENSITY: 3244334.148437
IONMODE: positive
CHARGE: 1
PARENTMASS: 315.131804012
NUM PEAKS: 11
74.97789764 0.0038660953761562914
76.099617   0.0038566124108305533
77.44463348 0.004745193924223198
84.5267868  0.006806059806652669
118.06147   0.0036051517222781713
151.9888306 0.0039359838575377774
176.0672607 0.006735181683910486
185.0405884 0.0038979274943374666
196.0605164 0.003741558635393079
221.5831604 0.006041978490804168
338.1206665 1.0


PRECURSORMZ: 338.12102201199997
COMPOUNDNAME: casmi2022challengebonus94
FORMULA: C14H21NO7
SMILES: C1CC(=CC#N)C(CC1O)OC2C(C(C(C(O2)CO)O)O)O
INCHIKEY: XUADVCPTUKSFOK-BKZLMLJWSA-N
PRECURSORTYPE: [M+Na]+
PRECURSORINTENSITY: 3244334.148437
IONMODE: positive
CHARGE: 1
PARENTMASS: 315.131804012
NUM PEAKS: 11
74.97789764 0.0038660953761562914
76.099617   0.0038566124108305533
77.44463348 0.004745193924223198
84.5267868  0.006806059806652669
118.06147   0.0036051517222781713
151.9888306 0.0039359838575377774
176.0672607 0.006735181683910486
185.0405884 0.0038979274943374666
196.0605164 0.003741558635393079
221.5831604 0.006041978490804168
338.1206665 1.0


