PRECURSORMZ: 475.17859646399984
COMPOUNDNAME: casmi2022challengebonus93
FORMULA: C19H32O12
SMILES: CC(C1CC(=O)OC1(C)C)OC2C(C(C(C(O2)COC3C(C(CO3)(CO)O)O)O)O)O
INCHIKEY: STSAPANRGPUFDY-VAVSPWHYSA-N
PRECURSORTYPE: [M+Na]+
PRECURSORINTENSITY: 559524.21875
IONMODE: positive
CHARGE: 1
PARENTMASS: 452.18937846399984
NUM PEAKS: 14
51.73279953 0.024672652492096887
57.64217377 0.023049331359927813
68.27924347 0.023606530565101393
72.88202667 0.022350397614273564
80.75688934 0.026136798780743705
97.34825134 0.02434706595181449
119.4216766 0.026626543841493853
157.7241669 0.027279254111805238
215.3538361 0.1599790580864947
293.1549072 0.028382486724839607
317.081604  0.03989882745732304
335.0934448 0.12714520859957426
475.1007996 0.02848840654058841
475.178009  1.0


