PRECURSORMZ: 469.2220793639999
COMPOUNDNAME: casmi2022challengebonus159
FORMULA: C27H32O7
SMILES: CC=C(C)C(=O)OC1=C2C(=CC(=C1OC)OC)CC(C(CC3=CC4=C(C(=C32)OC)OCO4)C)C
INCHIKEY: ZRJPWPHGPZYNIS-CVEARBPZSA-N
PRECURSORTYPE: [M+H]+
PRECURSORINTENSITY: 190575269.0078
IONMODE: positive
CHARGE: 1
PARENTMASS: 468.2148033639999
NUM PEAKS: 19
53.03889084 0.03773383243546643
55.04583359 0.004362348078382804
55.05449677 1.0
55.05954742 0.005921130608413625
55.0611763  0.012584893096089999
77.64241791 0.0013157821890308033
79.44950104 0.0014572780737570452
83.04912567 0.1489540698279029
83.05487823 0.002148497723847233
119.030632  0.0014959135786976215
141.4985809 0.0017220786270274097
141.5092468 0.0022880112772249396
141.5232239 0.0013134805559885444
153.7642975 0.001440388788057356
181.617981  0.001366604707887768
218.881485  0.001792591860471915
220.5213776 0.0018488304234400253
220.5419312 0.001520222526636573
246.6804352 0.0013283442715686733


PRECURSORMZ: 469.2220793639999
COMPOUNDNAME: casmi2022challengebonus159
FORMULA: C27H32O7
SMILES: CC=C(C)C(=O)OC1=C2C(=CC(=C1OC)OC)CC(C(CC3=CC4=C(C(=C32)OC)OCO4)C)C
INCHIKEY: ZRJPWPHGPZYNIS-CVEARBPZSA-N
PRECURSORTYPE: [M+H]+
PRECURSORINTENSITY: 190575269.0078
IONMODE: positive
CHARGE: 1
PARENTMASS: 468.2148033639999
NUM PEAKS: 19
53.03889084 0.03773383243546643
55.04583359 0.004362348078382804
55.05449677 1.0
55.05954742 0.005921130608413625
55.0611763  0.012584893096089999
77.64241791 0.0013157821890308033
79.44950104 0.0014572780737570452
83.04912567 0.1489540698279029
83.05487823 0.002148497723847233
119.030632  0.0014959135786976215
141.4985809 0.0017220786270274097
141.5092468 0.0022880112772249396
141.5232239 0.0013134805559885444
153.7642975 0.001440388788057356
181.617981  0.001366604707887768
218.881485  0.001792591860471915
220.5213776 0.0018488304234400253
220.5419312 0.001520222526636573
246.6804352 0.0013283442715686733


