PRECURSORMZ: 609.291650912
COMPOUNDNAME: casmi2022challengebonus233
FORMULA: C31H46O12
SMILES: CC(C)CC(=O)OC1C(C(C(OC1OC2CC3(C4CCC5CC4(CCC3C(C2)(C(=O)O)C(=O)O)C(C5=C)O)C)CO)O)O
INCHIKEY: ONMAWHWGRYJWEX-PBAAIBANSA-N
PRECURSORTYPE: [M-H]-
PRECURSORINTENSITY: 23305077.27148
IONMODE: negative
CHARGE: -1
PARENTMASS: 610.2989269120001
NUM PEAKS: 39
52.80732346 0.009469368028769727
55.01774979 0.022765823447534757
55.46597672 0.010529461464143063
57.03330994 0.05237514121381471
57.66405106 0.009801965751782273
59.01249695 0.9045710475895693
59.01597977 0.01856662606041726
63.94107056 0.01054355018780953
69.78977203 0.0134155252238021
71.00905609 0.012739606826159357
71.01245117 0.68594846072979
72.99169922 0.01417985361906011
73.02819824 0.12620968911413952
75.00734711 0.04659783247876054
83.0123291  0.07038518654901207
85.02806854 0.4387607600494156
85.03249359 0.010718729036624908
85.25738525 0.011064490790410952
89.02298737 0.18822961938701138
95.01237488 0.1747986752761544
99.0072403  0.024017468667001662
101.0229568 0.2600996425577604
101.0593796 1.0
101.0652237 0.014224735166487486
113.0139847 0.025817664094239533
113.022995  0.7501962990913587
113.059288  0.016211537839431463
115.0750122 0.4898291120564571
115.0845795 0.013850823485990146
119.0333633 0.02067108581314459
125.0594177 0.019879908299233393
127.0754395 0.016485999166191395
143.0703125 0.17200773195906552
155.0702362 0.01956110758129577
189.9872284 0.014528954541627679
221.2994537 0.012350895472597915
296.2645569 0.012398627239092469
301.1805725 0.4325863067249186
380.8196106 0.012406815541439874


PRECURSORMZ: 609.291650912
COMPOUNDNAME: casmi2022challengebonus233
FORMULA: C31H46O12
SMILES: CC(C)CC(=O)OC1C(C(C(OC1OC2CC3(C4CCC5CC4(CCC3C(C2)(C(=O)O)C(=O)O)C(C5=C)O)C)CO)O)O
INCHIKEY: ONMAWHWGRYJWEX-PBAAIBANSA-N
PRECURSORTYPE: [M-H]-
PRECURSORINTENSITY: 23305077.27148
IONMODE: negative
CHARGE: -1
PARENTMASS: 610.2989269120001
NUM PEAKS: 39
52.80732346 0.009469368028769727
55.01774979 0.022765823447534757
55.46597672 0.010529461464143063
57.03330994 0.05237514121381471
57.66405106 0.009801965751782273
59.01249695 0.9045710475895693
59.01597977 0.01856662606041726
63.94107056 0.01054355018780953
69.78977203 0.0134155252238021
71.00905609 0.012739606826159357
71.01245117 0.68594846072979
72.99169922 0.01417985361906011
73.02819824 0.12620968911413952
75.00734711 0.04659783247876054
83.0123291  0.07038518654901207
85.02806854 0.4387607600494156
85.03249359 0.010718729036624908
85.25738525 0.011064490790410952
89.02298737 0.18822961938701138
95.01237488 0.1747986752761544
99.0072403  0.024017468667001662
101.0229568 0.2600996425577604
101.0593796 1.0
101.0652237 0.014224735166487486
113.0139847 0.025817664094239533
113.022995  0.7501962990913587
113.059288  0.016211537839431463
115.0750122 0.4898291120564571
115.0845795 0.013850823485990146
119.0333633 0.02067108581314459
125.0594177 0.019879908299233393
127.0754395 0.016485999166191395
143.0703125 0.17200773195906552
155.0702362 0.01956110758129577
189.9872284 0.014528954541627679
221.2994537 0.012350895472597915
296.2645569 0.012398627239092469
301.1805725 0.4325863067249186
380.8196106 0.012406815541439874


