PRECURSORMZ: 383.17877507199995
COMPOUNDNAME: casmi2022challengebonus101
FORMULA: C22H26N2O2S
SMILES: CN1CCCC1CC2=CNC3=C2C=C(C=C3)CCS(=O)(=O)C4=CC=CC=C4
INCHIKEY: PWVXXGRKLHYWKM-LJQANCHMSA-N
PRECURSORTYPE: [M+H]+
PRECURSORINTENSITY: 282186479.0469
IONMODE: positive
CHARGE: 1
PARENTMASS: 382.17149907199996
NUM PEAKS: 17
55.04886246 0.00041496493245769724
82.06510925 0.00858258312991808
84.06468964 0.004144960325562123
84.06946564 0.00309993253991402
84.07131958 0.005200541029266425
84.08074188 1.0
84.09027863 0.006172009956676588
84.09313965 0.010624336917861408
85.08656311 0.0003584779819109295
98.0963974  0.0056191526097655545
144.0807495 0.008420861237439339
210.1273804 0.0006523925461652861
217.4114075 0.0014991093080233098
286.0902405 0.0015271238482766876
289.9300537 0.0003648625859807202
375.2807007 0.00043468317130688686
383.1786194 0.028412253516107086


