PRECURSORMZ: 353.0878061559999
COMPOUNDNAME: casmi2022challengebonus12
FORMULA: C16H18O9
SMILES: CC1=CC(=CC2=C1C(=CC(=O)O2)OC3C(C(C(C(O3)CO)O)O)O)O
INCHIKEY: NPDJLYQZNREONG-MNNDFKHZSA-N
PRECURSORTYPE: [M-H]-
PRECURSORINTENSITY: 19922157.93359
IONMODE: negative
CHARGE: -1
PARENTMASS: 354.0950821559999
NUM PEAKS: 41
50.54632187 0.0008320212906076066
52.01438522 0.0008015936051516205
53.75751114 0.0008934990346853504
81.95565033 0.0007584270677319512
100.2605896 0.0007649239895759212
105.0335617 0.0029737568517207557
116.4214478 0.0008649989643938074
123.0434036 0.005024688487835239
136.2171936 0.0008213884129485694
147.0439911 0.005595689102943237
149.0231781 0.07051508470473906
149.0371857 0.0013339587443152701
159.0437164 0.0017005103076085948
161.0597229 0.005244094826723349
162.0310364 0.0010986927305790715
163.0390472 0.0010408183529664401
165.039093  0.004328337722953901
165.0543518 0.001698920217034852
167.0329895 0.006739940686664349
173.0603485 0.0009245869830727083
175.039444  0.010142292633080799
177.0544586 0.0016698309715521796
187.0383301 0.0012470322290203586
189.0548859 0.0033387139170004566
190.0261841 0.012250571886652703
190.9814758 0.00829865540667192
190.9918671 0.0044543777081585524
191.0339661 1.0
191.0663757 0.007479743974944358
191.0751953 0.012361037685374079
191.0971375 0.0026409001664249305
201.0546265 0.001206606479425744
203.0339661 0.008685434133398362
204.0422058 0.00770058742358921
205.0502777 0.014263268270800386
215.0342407 0.14076566387077635
217.0491943 0.003011666237486283
233.0452576 0.014453582094169758
245.0440369 0.009949370742697413
257.0458374 0.001113617388379729
324.1542358 0.0008087295346926517


PRECURSORMZ: 353.0878061559999
COMPOUNDNAME: casmi2022challengebonus12
FORMULA: C16H18O9
SMILES: CC1=CC(=CC2=C1C(=CC(=O)O2)OC3C(C(C(C(O3)CO)O)O)O)O
INCHIKEY: NPDJLYQZNREONG-MNNDFKHZSA-N
PRECURSORTYPE: [M-H]-
PRECURSORINTENSITY: 19922157.93359
IONMODE: negative
CHARGE: -1
PARENTMASS: 354.0950821559999
NUM PEAKS: 41
50.54632187 0.0008320212906076066
52.01438522 0.0008015936051516205
53.75751114 0.0008934990346853504
81.95565033 0.0007584270677319512
100.2605896 0.0007649239895759212
105.0335617 0.0029737568517207557
116.4214478 0.0008649989643938074
123.0434036 0.005024688487835239
136.2171936 0.0008213884129485694
147.0439911 0.005595689102943237
149.0231781 0.07051508470473906
149.0371857 0.0013339587443152701
159.0437164 0.0017005103076085948
161.0597229 0.005244094826723349
162.0310364 0.0010986927305790715
163.0390472 0.0010408183529664401
165.039093  0.004328337722953901
165.0543518 0.001698920217034852
167.0329895 0.006739940686664349
173.0603485 0.0009245869830727083
175.039444  0.010142292633080799
177.0544586 0.0016698309715521796
187.0383301 0.0012470322290203586
189.0548859 0.0033387139170004566
190.0261841 0.012250571886652703
190.9814758 0.00829865540667192
190.9918671 0.0044543777081585524
191.0339661 1.0
191.0663757 0.007479743974944358
191.0751953 0.012361037685374079
191.0971375 0.0026409001664249305
201.0546265 0.001206606479425744
203.0339661 0.008685434133398362
204.0422058 0.00770058742358921
205.0502777 0.014263268270800386
215.0342407 0.14076566387077635
217.0491943 0.003011666237486283
233.0452576 0.014453582094169758
245.0440369 0.009949370742697413
257.0458374 0.001113617388379729
324.1542358 0.0008087295346926517


