PRECURSORMZ: 1178.5225273
COMPOUNDNAME: casmi2022challengebonus37
FORMULA: C54H80O27
SMILES: CC=C(C)C(=O)OCC1C(C(C(C(O1)OC2C(C(C(C(O2)COC(=O)C(=CC)C)O)O)OC3C(C(C(C(O3)CO)OC(=O)C(=CC)C)OC(=O)C(=CC)C)O)OC4C(C(C(C(O4)CO)OC(=O)CC(C)C)OC(=O)C(=CC)C)O)O)O
INCHIKEY: ZMPVBRFIWNEARM-FCYBPOFXSA-N
PRECURSORTYPE: [M+NH4]+
PRECURSORINTENSITY: 10174349.01367
IONMODE: positive
CHARGE: 1
PARENTMASS: 1160.4887043
NUM PEAKS: 46
83.03694153 0.011048812674359412
83.04917145 1.0
83.06497955 0.005445408415301343
85.02839661 0.0388224090492793
85.06481171 0.011420249921386091
97.02126312 0.0017239872160350546
97.02846527 0.10058603699608576
97.0358963  0.0015228294150295303
97.06497192 0.00875125945029047
99.04418182 0.01165300234172698
101.0597382 0.18616598800556722
109.0284042 0.08126049618329362
111.0440521 0.0021585859395483117
125.0239029 0.002649585599931185
127.038887  0.09421649926420683
130.8186951 0.0011702323026084778
133.6511078 0.001168668575197548
139.0389862 0.0022701951140344143
143.0706024 0.005188549105355843
145.04953   0.017024970645305327
151.0392151 0.00175282084137928
167.0700073 0.0018989754867092745
185.0809021 0.007291520225623063
193.0496216 0.0015272015112555216
205.0488586 0.004325495519236495
209.08078   0.029849470528794424
211.0961761 0.0016104687197230994
217.0315247 0.0022946317467423486
217.0553131 0.0020186131266289632
227.0912476 0.2780418722114301
229.1065063 0.017223829558352614
235.0609589 0.0014758058275213147
245.0782471 0.0016434120438754104
245.1018982 0.11688752154030255
255.0861359 0.0016771962935410777
261.6061707 0.0012634455374353057
269.1045532 0.003668562717093832
269.5379028 0.0012341997779896463
292.8355408 0.0013928714070417703
309.1331787 0.00720467366562004
311.1493835 0.0017184584218398928
327.1431274 0.009386898836303238
329.1585388 0.002428072923730799
353.1220703 0.00163716483599887
370.5917969 0.0015247793950218436
783.8515625 0.001266013181247183


