PRECURSORMZ: 532.3116275439999
COMPOUNDNAME: casmi2022challengebonus71
FORMULA: C26H42O10
SMILES: CC1(CCC2C(C1)CC(=O)OC3C2(CC(CC3)(C)C(=O)O)C)CCOC4C(C(C(C(O4)CO)O)O)O
INCHIKEY: AOOZOANZHYOTDM-UHFFFAOYSA-N
PRECURSORTYPE: [M+NH4]+
PRECURSORINTENSITY: 48911133.78125
IONMODE: positive
CHARGE: 1
PARENTMASS: 514.2778045439999
NUM PEAKS: 89
54.23662567 0.004949996998447638
61.02850342 0.008237123279171173
67.79881287 0.0061443169017566515
69.03368378 0.030794412694418592
72.30112457 0.008949825594815275
81.03330231 0.0057651911594155366
81.06993866 0.050656229301221475
85.02846527 0.16839759755871295
95.08575439 0.033479995066561644
97.02845764 0.010104334197245988
105.0699005 0.01018188864222377
107.0857925 0.020855759559806588
108.5486984 0.005685025463322193
109.0284424 0.0067440187835066745
109.1015244 0.030033168453972282
111.0804596 0.007931375031790191
111.3194122 0.0056970007890625755
118.3858414 0.004871528472156609
119.0855637 0.02302714633329629
121.1009903 0.010908625356943017
123.1168518 0.04358234907301293
125.0963211 0.036109252436611866
127.0389099 0.05051853193920966
131.0854187 0.008151228320286015
133.1014709 0.0243459514902631
135.1169434 0.008351227590550807
137.1325531 0.007233359688962071
139.1113281 0.0463359138524487
143.8824921 0.005777778900512705
145.0495911 0.04458949457285064
145.1008301 0.03787439317239546
147.1168823 0.07987727475445405
149.0961304 0.009610971238397057
149.1329193 0.00961461800213003
153.0908508 0.03925094226102503
157.8916626 0.005524179661358804
159.1170807 0.034073283558762865
161.1317902 0.011642881251000518
163.1122894 0.009850562850731853
171.1167755 0.028624838785123365
173.1322479 0.011694472344534886
175.1116638 0.006387274647212087
179.1065826 0.01266394832397722
189.1277466 0.02229797143097372
189.1616669 0.005380333285826602
191.10672   0.009156781827041558
193.1226196 0.05343730831064678
195.1017151 0.022585254948981566
197.1324615 0.03594936469895378
205.1231079 0.011433491611930916
207.1381683 0.006969530579546216
211.1481781 0.039573088993304424
213.164444  0.008840276391569854
214.9737396 0.044275551624742435
215.1424408 0.00602308877989135
217.1221619 0.02263542041988199
217.1952057 0.03140465184929894
219.1375732 0.0052461488262675795
225.16362   0.07849752446892411
227.1791077 0.08341169445188289
229.1967468 0.009124412257189407
243.1378174 0.10634412819253798
243.1665192 0.007118351813941204
243.1837921 0.008284708095820078
243.2102966 0.07480026061184916
253.1950531 0.38815365304526916
253.225769  0.010527491695399162
255.211441  0.011792316334980343
257.1524353 0.0201420398984331
261.2211914 0.32767613635529175
271.1706238 0.11045738701312434
271.2050781 1.0
273.1850281 0.12176708945005442
273.221344  0.07938944600338867
281.188324  0.0074570194185751846
289.1897583 0.01761664358337254
289.2160034 0.8256151315934406
289.25354   0.01309955970194738
299.2003174 0.35161230787005193
304.2385559 0.0082353104149767
304.2741089 0.0065961231042489495
317.1768494 0.006760427786077008
317.2107849 0.6212135156873794
329.1558838 0.0054945786296264785
335.1760864 0.008473027969388938
335.2217102 0.2279495591114279
335.27005   0.004958131939674733
354.8030701 0.00531970034089195
500.379364  0.005733878137524826


PRECURSORMZ: 532.3116275439999
COMPOUNDNAME: casmi2022challengebonus71
FORMULA: C26H42O10
SMILES: CC1(CCC2C(C1)CC(=O)OC3C2(CC(CC3)(C)C(=O)O)C)CCOC4C(C(C(C(O4)CO)O)O)O
INCHIKEY: AOOZOANZHYOTDM-UHFFFAOYSA-N
PRECURSORTYPE: [M+NH4]+
PRECURSORINTENSITY: 48911133.78125
IONMODE: positive
CHARGE: 1
PARENTMASS: 514.2778045439999
NUM PEAKS: 89
54.23662567 0.004949996998447638
61.02850342 0.008237123279171173
67.79881287 0.0061443169017566515
69.03368378 0.030794412694418592
72.30112457 0.008949825594815275
81.03330231 0.0057651911594155366
81.06993866 0.050656229301221475
85.02846527 0.16839759755871295
95.08575439 0.033479995066561644
97.02845764 0.010104334197245988
105.0699005 0.01018188864222377
107.0857925 0.020855759559806588
108.5486984 0.005685025463322193
109.0284424 0.0067440187835066745
109.1015244 0.030033168453972282
111.0804596 0.007931375031790191
111.3194122 0.0056970007890625755
118.3858414 0.004871528472156609
119.0855637 0.02302714633329629
121.1009903 0.010908625356943017
123.1168518 0.04358234907301293
125.0963211 0.036109252436611866
127.0389099 0.05051853193920966
131.0854187 0.008151228320286015
133.1014709 0.0243459514902631
135.1169434 0.008351227590550807
137.1325531 0.007233359688962071
139.1113281 0.0463359138524487
143.8824921 0.005777778900512705
145.0495911 0.04458949457285064
145.1008301 0.03787439317239546
147.1168823 0.07987727475445405
149.0961304 0.009610971238397057
149.1329193 0.00961461800213003
153.0908508 0.03925094226102503
157.8916626 0.005524179661358804
159.1170807 0.034073283558762865
161.1317902 0.011642881251000518
163.1122894 0.009850562850731853
171.1167755 0.028624838785123365
173.1322479 0.011694472344534886
175.1116638 0.006387274647212087
179.1065826 0.01266394832397722
189.1277466 0.02229797143097372
189.1616669 0.005380333285826602
191.10672   0.009156781827041558
193.1226196 0.05343730831064678
195.1017151 0.022585254948981566
197.1324615 0.03594936469895378
205.1231079 0.011433491611930916
207.1381683 0.006969530579546216
211.1481781 0.039573088993304424
213.164444  0.008840276391569854
214.9737396 0.044275551624742435
215.1424408 0.00602308877989135
217.1221619 0.02263542041988199
217.1952057 0.03140465184929894
219.1375732 0.0052461488262675795
225.16362   0.07849752446892411
227.1791077 0.08341169445188289
229.1967468 0.009124412257189407
243.1378174 0.10634412819253798
243.1665192 0.007118351813941204
243.1837921 0.008284708095820078
243.2102966 0.07480026061184916
253.1950531 0.38815365304526916
253.225769  0.010527491695399162
255.211441  0.011792316334980343
257.1524353 0.0201420398984331
261.2211914 0.32767613635529175
271.1706238 0.11045738701312434
271.2050781 1.0
273.1850281 0.12176708945005442
273.221344  0.07938944600338867
281.188324  0.0074570194185751846
289.1897583 0.01761664358337254
289.2160034 0.8256151315934406
289.25354   0.01309955970194738
299.2003174 0.35161230787005193
304.2385559 0.0082353104149767
304.2741089 0.0065961231042489495
317.1768494 0.006760427786077008
317.2107849 0.6212135156873794
329.1558838 0.0054945786296264785
335.1760864 0.008473027969388938
335.2217102 0.2279495591114279
335.27005   0.004958131939674733
354.8030701 0.00531970034089195
500.379364  0.005733878137524826


