PRECURSORMZ: 317.21112075599996
COMPOUNDNAME: casmi2022challengebonus57
FORMULA: C20H28O3
SMILES: CC(C)C1=CC2=C(C=C1)C3(CCCC(C3CC2O)(C)C(=O)O)C
INCHIKEY: GPFVBJYXFRIOFB-UHFFFAOYSA-N
PRECURSORTYPE: [M+H]+
PRECURSORINTENSITY: 1016141.738281
IONMODE: positive
CHARGE: 1
PARENTMASS: 316.20384475599997
NUM PEAKS: 40
54.49514008 0.04633259649027994
62.3401413  0.05008677054495418
74.70378876 0.05459002066091545
84.82273865 0.050460374135555104
107.0855713 0.06125148242238128
109.1008072 0.07212452663937328
119.0854568 0.10189147573535091
121.1008987 0.055870181270690086
123.1166    0.05830633876957976
133.1013031 0.18540447370734905
135.1172333 0.05919142035420382
147.1166534 0.062179147774662755
149.1324005 0.0641876710247758
151.1118317 0.09481008885545868
155.0851593 0.055530946162370434
159.1161957 0.056766136845096044
169.1220856 0.24649527137740734
173.1328125 0.06722470128176752
175.1473236 0.10777304160055874
183.116394  0.04706058646702936
187.147583  0.2527983586961126
193.1591492 0.3316798713427352
197.1324768 0.05876556599122488
199.1475525 0.1156981277203341
208.7514954 0.0482271959252018
211.1481171 0.089846104177071
215.1409912 0.05932368255523253
217.0085602 0.0660319441888325
217.0300293 0.20519448990075
219.1368561 0.09211539738264347
231.1384125 0.050201545368043006
243.2096405 0.1178778982325378
253.1947937 0.30512139444084707
271.2054749 0.553356125957534
281.7446289 0.048997041028860565
299.2006836 0.2729678242925221
317.2101746 1.0
317.2463379 0.09447825139747733
337.848938  0.05631479674238296
432.0402527 0.060558250277929736


PRECURSORMZ: 317.21112075599996
COMPOUNDNAME: casmi2022challengebonus57
FORMULA: C20H28O3
SMILES: CC(C)C1=CC2=C(C=C1)C3(CCCC(C3CC2O)(C)C(=O)O)C
INCHIKEY: GPFVBJYXFRIOFB-UHFFFAOYSA-N
PRECURSORTYPE: [M+H]+
PRECURSORINTENSITY: 1016141.738281
IONMODE: positive
CHARGE: 1
PARENTMASS: 316.20384475599997
NUM PEAKS: 40
54.49514008 0.04633259649027994
62.3401413  0.05008677054495418
74.70378876 0.05459002066091545
84.82273865 0.050460374135555104
107.0855713 0.06125148242238128
109.1008072 0.07212452663937328
119.0854568 0.10189147573535091
121.1008987 0.055870181270690086
123.1166    0.05830633876957976
133.1013031 0.18540447370734905
135.1172333 0.05919142035420382
147.1166534 0.062179147774662755
149.1324005 0.0641876710247758
151.1118317 0.09481008885545868
155.0851593 0.055530946162370434
159.1161957 0.056766136845096044
169.1220856 0.24649527137740734
173.1328125 0.06722470128176752
175.1473236 0.10777304160055874
183.116394  0.04706058646702936
187.147583  0.2527983586961126
193.1591492 0.3316798713427352
197.1324768 0.05876556599122488
199.1475525 0.1156981277203341
208.7514954 0.0482271959252018
211.1481171 0.089846104177071
215.1409912 0.05932368255523253
217.0085602 0.0660319441888325
217.0300293 0.20519448990075
219.1368561 0.09211539738264347
231.1384125 0.050201545368043006
243.2096405 0.1178778982325378
253.1947937 0.30512139444084707
271.2054749 0.553356125957534
281.7446289 0.048997041028860565
299.2006836 0.2729678242925221
317.2101746 1.0
317.2463379 0.09447825139747733
337.848938  0.05631479674238296
432.0402527 0.060558250277929736


