PRECURSORMZ: 486.25986183999987
COMPOUNDNAME: casmi2022challengebonus180
FORMULA: C26H35N3O6
SMILES: CC1(NC2=CC=CC=C2C(=O)N1)CCCC=CCC=CCCCC(=O)NC(CCC(=O)O)C(=O)O
INCHIKEY: PJORSFDPCGOEBJ-UHFFFAOYSA-N
PRECURSORTYPE: [M+H]+
PRECURSORINTENSITY: 33136497.8623
IONMODE: positive
CHARGE: 1
PARENTMASS: 485.2525858399999
NUM PEAKS: 153
57.77202988 0.002715301876694605
65.03916931 0.0037793616553384876
67.05431366 0.014092973828030831
69.06987762 0.003972956731311867
70.06520081 0.03466769603244613
79.05428314 0.09574047522524759
79.05957031 0.0032773518583434744
80.54157257 0.005904602204036083
81.06999207 0.024156935431882184
81.65532684 0.0023926954385161603
83.04917908 0.0029319985013214105
83.08531189 0.00297734456189245
84.04449463 0.03874276675102636
85.04384613 0.005689659859542507
85.04920197 0.005607111350840036
85.06504059 0.004615324457320143
91.05436707 0.013390782116347753
92.04953003 0.02168263722293801
93.07002258 0.029335226159509335
95.08554077 0.01737622583763032
96.08082581 0.016071789121392177
97.06488037 0.0036308364836545952
102.0549316 0.04449621871159911
104.6580887 0.003163326471208342
105.0697861 0.020723946760398317
107.0492783 0.012573621924430211
107.0855637 0.019507932252367594
109.0649414 0.0061548167242106286
110.0963211 0.01375284804240677
112.0758057 0.005561722614777181
117.070282  0.0057772606527056345
119.0855255 0.07216503816049528
120.0443802 0.9403701292662513
120.0646515 0.0072298490419020565
121.0650482 0.020875753007289003
121.1011963 0.015578364504735188
123.0804214 0.006405658327231326
130.049942  0.0556744719694391
130.0609741 0.003165765675350063
130.0656586 0.0033681356788893774
131.085495  0.010891929628579607
133.1007538 0.00976142693075493
135.0805817 0.005978838514471915
135.1169891 0.01752480003322622
136.1122284 0.0187188842761424
138.0915985 0.022387541826214226
143.0855713 0.016872598604227854
144.0810242 0.017808130029641763
145.10112   0.06948319457473598
146.0602112 0.018859688005334253
148.0602112 0.04342498345460603
149.0962982 0.005792168154247313
157.1017151 0.003952347290302367
158.0602875 0.01765357985443665
158.0962982 0.010962088137065385
159.0687714 0.0034238582323831055
159.1164398 0.005005252541851044
160.0756378 0.04854569259967189
161.0960541 0.021606408213919077
161.1319427 0.015578611387745484
162.0549469 0.01167493814099294
162.0915985 0.0032507516247441445
163.1112823 0.019288235999165734
170.0965881 0.015951101419879214
172.0756073 0.28365461794811836
172.1114807 0.04734233684164907
173.0836182 0.006276847469299604
174.0550995 0.02956508693893508
174.0915985 0.020926852147379958
174.1279449 0.0036091841382716408
175.1482239 0.012190340988606475
176.0699005 0.004044549982777477
178.0856323 0.013896342091030816
180.0806122 0.0033503392934371894
181.0894165 0.0032109297478735126
182.096756  0.014610031497193378
184.0761566 0.017103037795277724
184.1122589 0.016983873714628294
185.132782  0.0663370021371322
186.0918427 0.03294607217313028
186.1280518 0.012451338653290706
189.102478  0.01616766014271023
190.0861511 0.06615782996662029
194.0970917 0.017570240614721202
195.104599  0.015665531136490246
196.1121063 0.028385304981495343
198.0912476 0.059120247770096224
198.1254578 0.008677899721369245
199.0995331 0.003206774354120223
200.1062164 0.0233183725991121
203.1427155 0.0492766412443942
206.0969391 0.003524894398966592
208.1124115 0.006423750619605818
210.090744  0.004644976870306684
210.1276398 0.03390283835894973
212.1070251 0.08359333453116267
213.1146851 0.024750145929020487
214.0866547 0.013377031438054316
214.1224518 0.04299956311582498
215.3425751 0.005933039599921991
215.3706055 0.014058977332133096
216.1024475 0.0039013306796748526
219.1857147 0.07977841361047132
220.1128845 0.039460471180316356
220.1697235 0.08689489679556574
221.119339  0.0049666209937800155
222.0921783 0.015238708502210718
224.1069031 0.03328420878707139
226.1225586 0.059996544202159885
228.1016846 0.0032866043281893245
230.1180573 0.03063649430865534
238.1225891 0.11302799670265873
238.1801758 0.0430972102840571
240.1016083 0.05175211884874756
240.1286621 0.0038762177398675825
240.1386414 0.0034128966267259805
242.1177521 0.010472309629780446
244.1339569 0.011028731736864583
248.1431427 0.003435119624552733
252.1396942 0.0038337679696973256
254.1172943 0.013696375317251722
256.1340637 0.012590022010114135
258.1123047 0.0159094896411839
276.174408  0.006130160165282391
280.1330566 0.0032500836298562878
280.1677551 0.00632621983907855
286.1586914 0.003508627630108229
294.1504517 0.006664253467535364
294.184967  0.032342139899544854
304.1696472 0.173185548128813
304.2564087 0.004289389154437822
306.1850586 0.01482413408676197
312.1980286 0.004822956243188851
321.1911011 0.07906833292853925
322.1799622 1.0
339.2067871 0.1285166298138519
340.1907043 0.8197505505350053
340.2901917 0.0038802849611171957
349.2121277 0.05413110610811704
357.2172852 0.018806722429685462
358.2015076 0.004711801047393412
367.2228394 0.28169853705310505
389.2191467 0.005768884970236349
395.231842  0.0037026455814092073
405.2178955 0.027999312564838532
407.2357483 0.0034017431577008537
423.2280884 0.06511301542400902
441.2386169 0.1033053995317631
441.3041992 0.005210219049278639
451.2214966 0.059384065544138054
468.2484131 0.015410852266109526
469.232605  0.08937017125047063
486.2606506 0.027498611247798087


PRECURSORMZ: 486.25986183999987
COMPOUNDNAME: casmi2022challengebonus180
FORMULA: C26H35N3O6
SMILES: CC1(NC2=CC=CC=C2C(=O)N1)CCCC=CCC=CCCCC(=O)NC(CCC(=O)O)C(=O)O
INCHIKEY: PJORSFDPCGOEBJ-UHFFFAOYSA-N
PRECURSORTYPE: [M+H]+
PRECURSORINTENSITY: 33136497.8623
IONMODE: positive
CHARGE: 1
PARENTMASS: 485.2525858399999
NUM PEAKS: 153
57.77202988 0.002715301876694605
65.03916931 0.0037793616553384876
67.05431366 0.014092973828030831
69.06987762 0.003972956731311867
70.06520081 0.03466769603244613
79.05428314 0.09574047522524759
79.05957031 0.0032773518583434744
80.54157257 0.005904602204036083
81.06999207 0.024156935431882184
81.65532684 0.0023926954385161603
83.04917908 0.0029319985013214105
83.08531189 0.00297734456189245
84.04449463 0.03874276675102636
85.04384613 0.005689659859542507
85.04920197 0.005607111350840036
85.06504059 0.004615324457320143
91.05436707 0.013390782116347753
92.04953003 0.02168263722293801
93.07002258 0.029335226159509335
95.08554077 0.01737622583763032
96.08082581 0.016071789121392177
97.06488037 0.0036308364836545952
102.0549316 0.04449621871159911
104.6580887 0.003163326471208342
105.0697861 0.020723946760398317
107.0492783 0.012573621924430211
107.0855637 0.019507932252367594
109.0649414 0.0061548167242106286
110.0963211 0.01375284804240677
112.0758057 0.005561722614777181
117.070282  0.0057772606527056345
119.0855255 0.07216503816049528
120.0443802 0.9403701292662513
120.0646515 0.0072298490419020565
121.0650482 0.020875753007289003
121.1011963 0.015578364504735188
123.0804214 0.006405658327231326
130.049942  0.0556744719694391
130.0609741 0.003165765675350063
130.0656586 0.0033681356788893774
131.085495  0.010891929628579607
133.1007538 0.00976142693075493
135.0805817 0.005978838514471915
135.1169891 0.01752480003322622
136.1122284 0.0187188842761424
138.0915985 0.022387541826214226
143.0855713 0.016872598604227854
144.0810242 0.017808130029641763
145.10112   0.06948319457473598
146.0602112 0.018859688005334253
148.0602112 0.04342498345460603
149.0962982 0.005792168154247313
157.1017151 0.003952347290302367
158.0602875 0.01765357985443665
158.0962982 0.010962088137065385
159.0687714 0.0034238582323831055
159.1164398 0.005005252541851044
160.0756378 0.04854569259967189
161.0960541 0.021606408213919077
161.1319427 0.015578611387745484
162.0549469 0.01167493814099294
162.0915985 0.0032507516247441445
163.1112823 0.019288235999165734
170.0965881 0.015951101419879214
172.0756073 0.28365461794811836
172.1114807 0.04734233684164907
173.0836182 0.006276847469299604
174.0550995 0.02956508693893508
174.0915985 0.020926852147379958
174.1279449 0.0036091841382716408
175.1482239 0.012190340988606475
176.0699005 0.004044549982777477
178.0856323 0.013896342091030816
180.0806122 0.0033503392934371894
181.0894165 0.0032109297478735126
182.096756  0.014610031497193378
184.0761566 0.017103037795277724
184.1122589 0.016983873714628294
185.132782  0.0663370021371322
186.0918427 0.03294607217313028
186.1280518 0.012451338653290706
189.102478  0.01616766014271023
190.0861511 0.06615782996662029
194.0970917 0.017570240614721202
195.104599  0.015665531136490246
196.1121063 0.028385304981495343
198.0912476 0.059120247770096224
198.1254578 0.008677899721369245
199.0995331 0.003206774354120223
200.1062164 0.0233183725991121
203.1427155 0.0492766412443942
206.0969391 0.003524894398966592
208.1124115 0.006423750619605818
210.090744  0.004644976870306684
210.1276398 0.03390283835894973
212.1070251 0.08359333453116267
213.1146851 0.024750145929020487
214.0866547 0.013377031438054316
214.1224518 0.04299956311582498
215.3425751 0.005933039599921991
215.3706055 0.014058977332133096
216.1024475 0.0039013306796748526
219.1857147 0.07977841361047132
220.1128845 0.039460471180316356
220.1697235 0.08689489679556574
221.119339  0.0049666209937800155
222.0921783 0.015238708502210718
224.1069031 0.03328420878707139
226.1225586 0.059996544202159885
228.1016846 0.0032866043281893245
230.1180573 0.03063649430865534
238.1225891 0.11302799670265873
238.1801758 0.0430972102840571
240.1016083 0.05175211884874756
240.1286621 0.0038762177398675825
240.1386414 0.0034128966267259805
242.1177521 0.010472309629780446
244.1339569 0.011028731736864583
248.1431427 0.003435119624552733
252.1396942 0.0038337679696973256
254.1172943 0.013696375317251722
256.1340637 0.012590022010114135
258.1123047 0.0159094896411839
276.174408  0.006130160165282391
280.1330566 0.0032500836298562878
280.1677551 0.00632621983907855
286.1586914 0.003508627630108229
294.1504517 0.006664253467535364
294.184967  0.032342139899544854
304.1696472 0.173185548128813
304.2564087 0.004289389154437822
306.1850586 0.01482413408676197
312.1980286 0.004822956243188851
321.1911011 0.07906833292853925
322.1799622 1.0
339.2067871 0.1285166298138519
340.1907043 0.8197505505350053
340.2901917 0.0038802849611171957
349.2121277 0.05413110610811704
357.2172852 0.018806722429685462
358.2015076 0.004711801047393412
367.2228394 0.28169853705310505
389.2191467 0.005768884970236349
395.231842  0.0037026455814092073
405.2178955 0.027999312564838532
407.2357483 0.0034017431577008537
423.2280884 0.06511301542400902
441.2386169 0.1033053995317631
441.3041992 0.005210219049278639
451.2214966 0.059384065544138054
468.2484131 0.015410852266109526
469.232605  0.08937017125047063
486.2606506 0.027498611247798087


