PRECURSORMZ: 210.005279908
COMPOUNDNAME: Challenge-032
FORMULA: C9H9NOS2
SMILES: CCOC1=CC=C2N=C(S)SC2=C1
INCHIKEY: HOASVNMVYBSLSU-UHFFFAOYSA-N
PRECURSORTYPE: [M-H]-
IONMODE: negative
CHARGE: -1
PARENTMASS: 211.012555908
NUM PEAKS: 3
152.9712    0.0072766417745789135
180.9661    1.0
210.0052    0.18765340280043322


