PRECURSORMZ: 296.116030496
COMPOUNDNAME: Challenge-169
FORMULA: C14H18ClN3O2
SMILES: CC(C)(C)C(O)C(Oc1ccc(Cl)cc1)n1cncn1
INCHIKEY: BAZVSMNPJJMILC-UHFFFAOYSA-N
PRECURSORTYPE: [M+H]+
IONMODE: positive
CHARGE: 1
PARENTMASS: 295.108754496
NUM PEAKS: 11
57.0701     0.006618912021624745
59.0493     0.002313763857918253
69.0699     0.003684918633244393
70.0401     1.0
99.0805     0.04276386289938284
127.0122    0.0011229940575121248
141.0101    0.0015888542239150683
169.0414    0.0013724897181178635
209.0729    0.001603857386932504
227.0833    0.01495610296327413
296.1164    0.00311216342090713


