PRECURSORMZ: 193.05063280000002
COMPOUNDNAME: Challenge-020
FORMULA: C10H10O4
SMILES: CCOC(=O)C1=CC=CC=C1C(O)=O
INCHIKEY: YWWHKOHZGJFMIE-UHFFFAOYSA-N
PRECURSORTYPE: [M-H]-
IONMODE: negative
CHARGE: -1
PARENTMASS: 194.0579088
NUM PEAKS: 7
134.037     0.10956428461636575
147.0088    0.20780906097006605
147.045     0.031660741792113756
149.0607    0.36078855883285965
165.0195    0.03620725178482077
179.0348    0.04495099305694093
193.0506    1.0


