PRECURSORMZ: 426.169128688
COMPOUNDNAME: Challenge-108
FORMULA: C22H24ClN5O2
SMILES: ClC1=CC2=C(C=C1)N(C1CCN(CCCN3C(=O)NC4=C3C=CC=C4)CC1)C(=O)N2
INCHIKEY: FGXWKSZFVQUSTL-UHFFFAOYSA-N
PRECURSORTYPE: [M+H]+
IONMODE: positive
CHARGE: 1
PARENTMASS: 425.161852688
NUM PEAKS: 15
84.0808     0.004795734135349206
98.0965     0.003909689332502872
119.0604    0.07891831306877654
124.1121    0.0030064858034740895
134.0474    0.002588189125384195
147.0552    0.6438848977615581
172.063     0.0020014233602169812
175.0866    1.0
207.032     0.005642517984615193
235.0634    0.009275707608732047
252.0898    0.012234446772253074
256.1447    0.002016861940808059
258.1601    0.004136506415419937
292.1215    0.0024938769390752042
426.1691    0.7220718038292501


