PRECURSORMZ: 441.1669645000001
COMPOUNDNAME: Challenge-156
FORMULA: C24H20N6O3
SMILES: CCOC1=Nc2cccc(C(O)=O)c2N1Cc1ccc(-c2ccccc2C2NN=NN=2)cc1
INCHIKEY: HTQMVQVXFRQIKW-UHFFFAOYSA-N
PRECURSORTYPE: [M+H]+
IONMODE: positive
CHARGE: 1
PARENTMASS: 440.15968850000013
NUM PEAKS: 104
56.0497     0.0021716400310268515
67.0419     0.0028064953020512963
80.0496     0.0033998891593948594
105.0451    0.0019082604999113594
108.0807    0.0021266276719267155
115.0545    0.0025616823708603134
116.0496    0.002361176401066242
129.0449    0.0022536072441416057
129.0698    0.0026506050715166796
140.0496    0.009481106787629506
145.0396    0.003754451325695163
151.0499    0.0022214304613620405
152.0622    0.04015501181075325
153.07      0.0633118076122261
161.0347    0.02674342635887547
163.0541    0.012095387870247283
165.0701    0.19572510358698725
166.0654    0.007808209551564039
166.078     0.006614266708475899
167.0733    0.011339126999802489
167.0857    0.041979154300024545
168.0806    0.0016742867364469144
173.0346    0.015699594808911754
177.0576    0.01860563104346155
177.0702    0.01002406604013154
178.0653    0.006789354404050739
178.0779    0.12162114500155187
179.0453    0.025910806852526093
179.0733    0.016974376228789487
179.0858    0.015457843037564957
180.0809    0.19321165178588065
181.0764    0.002006028621578355
189.066     0.003928011103226037
190.0653    0.18858529429458368
191.0455    0.010830958494399141
191.0731    0.09227244003187866
191.086     0.007767035620720698
192.0683    0.041630296538546926
192.081     0.14457292294980817
193.0888    0.1287243933979034
194.0966    0.17690272379341057
195.0918    0.0018846629503298865
196.076     0.00942047186581153
203.0729    0.003364550065402346
204.0808    0.0024594396320645577
205.0761    0.05944766561274038
206.0841    0.11865044908545853
206.1097    0.011907823951898797
207.0773    0.05116744118447188
207.0919    0.30283572538574605
208.0755    0.007348982337373886
208.1123    0.0535209167721214
210.0915    0.28043594110434933
217.0889    0.01862798549595847
218.0967    0.03917683548475196
219.0919    0.04184519794524304
220.0999    0.05075146150418474
224.1074    0.006701674800478925
232.1001    0.003509513286232287
233.0718    0.0025930206620303846
233.1075    0.02699487002847677
234.1155    0.06404185963064844
235.0982    0.054559307443196856
235.1232    0.16834565073071217
239.0866    0.0020326926547602634
251.1297    0.00717226291050819
263.1294    1.0
267.1246    0.00339168258913432
279.0926    0.00227982408179845
281.1075    0.004054519523012735
282.0917    0.008370648428187586
294.0793    0.0019665928971508853
294.103     0.0021245540688670465
295.1555    0.002870872824513555
297.1027    0.003769134245434746
307.0872    0.003764928477996649
308.0945    0.006551182858782574
308.1186    0.023022810166031984
309.1025    0.04905912191029151
310.109     0.01507722907005158
322.0982    0.010339059388098105
323.1048    0.0030312589672019346
324.1133    0.017610682223392266
334.0983    0.0021124398615184523
335.0805    0.0019090484158364714
336.0909    0.0017564881948367017
337.0968    0.026787869076056778
338.1054    0.0861610553388491
348.1011    0.008755031615126495
349.085     0.021383708134646313
349.1087    0.03355349017474165
350.0929    0.06492380640053919
351.1009    0.017486215464127732
352.1085    0.15780945797240484
365.1037    0.0038753964201998217
367.1192    0.006698435294800341
367.1431    0.002794633973124614
368.1029    0.0065707769436634785
377.1406    0.002360116973572342
380.14      0.02481687875624277
395.127     0.0043735429544611215
395.1508    0.07966189888802704
423.1569    0.5048043173533691
441.168     0.04849446835106765


