PRECURSORMZ: 391.2299586799999
COMPOUNDNAME: Challenge-135
FORMULA: C15H30N6O6
SMILES: COCN(COC)C1=NC(=NC(=N1)N(COC)COC)N(COC)COC
INCHIKEY: BNCADMBVWNPPIZ-UHFFFAOYSA-N
PRECURSORTYPE: [M+H]+
IONMODE: positive
CHARGE: 1
PARENTMASS: 390.22268267999993
NUM PEAKS: 26
69.0448     0.021626243815454783
82.0401     0.0030546632192538104
84.0556     0.0010458534171786788
94.04       0.001020255325270395
96.0557     0.01870382707965703
121.0509    0.0010744317303961878
123.0665    0.005194162422865008
148.0617    0.0033575558354507974
150.0776    0.00312534804129475
177.0884    1.0
191.104     0.0037092252985026497
193.1199    0.009991484938463788
207.099     0.2875658402881318
209.1149    0.009182054319455749
223.1301    0.0010768544159211594
239.1254    0.0038202335194263883
253.141     0.0214490336615662
269.136     0.010972424782395289
283.1516    0.3992542548686603
301.1623    0.01680163050921535
315.178     0.015908710162226506
329.1935    0.009501313038628958
345.1891    0.001865189923476623
359.2041    0.08328243517164768
377.2145    0.01896958580348474
391.2305    0.009023452968792662


