PRECURSORMZ: 436.23431578800006
COMPOUNDNAME: Challenge-176
FORMULA: C24H29N5O3
SMILES: CCCCC(=O)N(CC1=CC=C(C=C1)C1=CC=CC=C1C1=NNN=N1)[C@@H](C(C)C)C(O)=O
INCHIKEY: ACWBQPMHZXGDFX-QFIPXVFZSA-N
PRECURSORTYPE: [M+H]+
IONMODE: positive
CHARGE: 1
PARENTMASS: 435.22703978800007
NUM PEAKS: 65
55.0544     0.004406462042427539
57.0701     0.00467209432848468
67.0418     0.0027225634133203817
72.0808     0.002261575990710015
79.0542     0.004623485630361407
80.0496     0.009433268274157901
83.0493     0.0027871328150127815
84.0808     0.011417344384351179
85.0648     0.0035931443086569177
98.06       0.007479022613983804
105.0447    0.0035984645431799598
109.1662    0.0018346655179050516
115.0542    0.0048474763842943445
129.0445    0.007155021138849886
140.0494    0.02454843399421572
141.0701    0.0030927193357505552
152.0618    0.014909565700940495
153.0699    0.09946808149921141
163.0541    0.022643467107226218
165.0698    0.0268151849019656
166.0651    0.008730020460701631
167.0669    0.0019232203775154456
167.073     0.014224280743043813
167.0857    0.003880453119288216
168.0686    0.0027197943079464762
177.0579    0.0035473450818750995
178.0656    0.006676087007066951
178.0777    0.11105338867453662
179.073     0.0108910448262455
179.0853    0.02214503621311681
180.0808    0.38764136969155233
181.0648    0.00945552606866477
181.0757    0.0030745142843856686
190.0651    0.3183815798141745
191.073     0.04144913984967068
192.0682    0.08296625598869495
192.0804    0.014428718222295705
193.0888    0.026942499163617153
194.06      0.0042257597520948325
194.0965    0.08314619939883772
195.0807    0.004151639762480189
195.0918    0.001835690813480812
196.0759    0.015632374862271318
199.0976    0.002074633121794135
205.076     0.04745760604624067
206.0839    0.20000505381913722
207.0917    1.0
208.0757    0.10349256846391024
209.1074    0.04412033353268739
210.0914    0.13598873046771562
224.1073    0.002911032115809638
234.0912    0.0022831798565425806
235.0866    0.09524359731169114
235.0977    0.819833608252483
267.124     0.04280301440128551
290.1413    0.003349471108946778
291.1492    0.7299987438110899
293.1653    0.002399748697632423
306.1714    0.3240790746699356
352.1768    0.12489986010770286
362.2228    0.2593456902709622
390.2286    0.008021185997336493
408.2283    0.09629899782605046
418.2238    0.22193078173055683
436.2352    0.04200951635758176


