PRECURSORMZ: 397.08234391599996
COMPOUNDNAME: Challenge-036
FORMULA: C15H18N4O7S
SMILES: CCCOC1=NN(C(=O)NS(=O)(=O)C2=CC=CC=C2C(=O)OC)C(=O)N1C
INCHIKEY: JTHMVYBOQLDDIY-UHFFFAOYSA-N
PRECURSORTYPE: [M-H]-
IONMODE: negative
CHARGE: -1
PARENTMASS: 398.08961991599995
NUM PEAKS: 4
113.0221    1.0
114.0299    0.0045026843802488635
156.0778    0.36723352589114044
397.0814    0.0035628981179680595


