PRECURSORMZ: 294.00940795200006
COMPOUNDNAME: Challenge-060
FORMULA: C14H11Cl2NO2
SMILES: OC(=O)Cc1ccccc1Nc1c(Cl)cccc1Cl
INCHIKEY: DCOPUUMXTXDBNB-UHFFFAOYSA-N
PRECURSORTYPE: [M-H]-
IONMODE: negative
CHARGE: -1
PARENTMASS: 295.01668395200005
NUM PEAKS: 4
178.0662    0.014243720816786652
214.0429    0.06476026133149394
250.0196    1.0
294.0095    0.030093369344611334


