PRECURSORMZ: 194.09642535199998
COMPOUNDNAME: Challenge-160
FORMULA: C14H11N
SMILES: N1C2=CC=CC=C2C=CC2=CC=CC=C12
INCHIKEY: LCGTWRLJTMHIQZ-UHFFFAOYSA-N
PRECURSORTYPE: [M+H]+
IONMODE: positive
CHARGE: 1
PARENTMASS: 193.089149352
NUM PEAKS: 12
107.073     0.004116060361273787
116.0494    0.001032974899248419
121.0884    0.002272491895518236
122.0964    0.0011249827339825597
134.06      0.01569977703484686
165.07      0.0013178926247166926
167.0855    0.0029307768900292694
177.0697    0.001906705816833891
179.073     0.010478099638841921
192.0806    0.0012739062776467207
193.0888    0.02231880595334692
194.0965    1.0


