PRECURSORMZ: 279.14516643599995
COMPOUNDNAME: Challenge-109
FORMULA: C13H18N4O3
SMILES: CN1c2ncn(C)c2C(=O)N(CCCCC(C)=O)C1=O
INCHIKEY: BYPFEZZEUUWMEJ-UHFFFAOYSA-N
PRECURSORTYPE: [M+H]+
IONMODE: positive
CHARGE: 1
PARENTMASS: 278.13789043599996
NUM PEAKS: 20
67.0292     0.00274997549543938
69.0448     0.005415830214933764
79.0543     0.001623044454170676
81.0698     0.0077257798140710696
83.0604     0.01937775403334149
96.0557     0.002371968500279734
99.0805     0.3697362754932472
108.0556    0.0050584484165770265
110.0713    0.0796657229366131
112.0869    0.034961957982006804
135.0665    0.00945136336068017
137.0822    0.020289508470010827
138.0662    0.19628934178860363
149.0235    0.001712204728443693
156.0768    0.03679081029841641
163.0613    0.013963494462053291
181.072     0.8759290630136352
193.0722    0.010436395777673125
221.1038    0.005107629720676566
279.1453    1.0


