PRECURSORMZ: 139.050203432
COMPOUNDNAME: Challenge-089
FORMULA: C6H6N2O2
SMILES: COC(=O)C1=CN=CC=N1
INCHIKEY: TWIIRMSFZNYMQE-UHFFFAOYSA-N
PRECURSORTYPE: [M+H]+
IONMODE: positive
CHARGE: 1
PARENTMASS: 138.042927432
NUM PEAKS: 18
52.0183     0.012633610414785768
67.0542     0.0014145278750173228
69.0335     0.005479298022053355
69.0447     0.001275987148799874
79.029      0.0949568449122876
81.0334     0.007366838540808218
81.0446     0.01409940942864148
83.0491     0.0031655571928426228
95.0491     0.0034924030153415716
97.0395     1.0
99.0438     0.0020766963756368405
107.0239    0.06226988463276253
111.044     0.0015907685709763944
111.0552    0.005981851533870112
121.0397    0.0014823222197348578
125.0344    0.9972494807285299
127.0387    0.003271984268923991
139.05      0.3015844852426861


