PRECURSORMZ: 411.219080324
COMPOUNDNAME: Challenge-105
FORMULA: C23H27FN4O2
SMILES: CC1=C(CCN2CCC(CC2)c2noc3cc(F)ccc23)C(=O)N2CCCCC2=N1
INCHIKEY: RAPZEAPATHNIPO-UHFFFAOYSA-N
PRECURSORTYPE: [M+H]+
IONMODE: positive
CHARGE: 1
PARENTMASS: 410.211804324
NUM PEAKS: 11
67.0543     0.0013724171863911975
69.0335     0.007009641056331034
82.0651     0.007732891404655505
107.0728    0.0011745382714693198
110.06      0.01929051430721036
148.112     0.0031818889694333195
150.0788    0.0011246759958080759
163.0867    0.0032332332782889542
163.1229    0.0051463151531453664
191.1178    1.0
411.2191    0.45644216287156925


