PRECURSORMZ: 402.842619512
COMPOUNDNAME: Challenge-075
FORMULA: C13H6Cl6O2
SMILES: OC1=C(CC2=C(Cl)C(Cl)=CC(Cl)=C2O)C(Cl)=C(Cl)C=C1Cl
INCHIKEY: ACGUYXCXAPNIKK-UHFFFAOYSA-N
PRECURSORTYPE: [M-H]-
IONMODE: negative
CHARGE: -1
PARENTMASS: 403.849895512
NUM PEAKS: 9
132.9615    0.0023347938090642075
158.941     0.12494972301366684
194.9176    0.9964059669910368
252.9344    0.0010990857817968506
266.9179    0.003809896156806591
302.8943    0.0683144338155552
330.8891    0.006848599920945547
366.8657    0.27582308312881787
402.8425    1.0


