PRECURSORMZ: 384.9948924439999
COMPOUNDNAME: Challenge-203
FORMULA: C9H22O4P2S4
SMILES: CCOP(=S)(OCC)SCSP(=S)(OCC)OCC
INCHIKEY: RIZMRRKBZQXFOY-UHFFFAOYSA-N
PRECURSORTYPE: [M+H]+
IONMODE: positive
CHARGE: 1
PARENTMASS: 383.9876164439999
NUM PEAKS: 38
63.0265     0.004017271204991175
64.979      0.00508856028599285
75.0263     0.019435561616564966
78.9402     0.0013491771730370417
78.9671     0.002026337093814807
96.9508     0.13830328919467597
110.9664    0.0167451735791807
112.9998    0.00460474138370756
114.9613    0.6922856693156663
115.9677    0.0014035623044401468
124.9821    0.028763391341225436
126.9436    0.0254388738375711
128.9228    0.012854095407704493
128.977     0.05036353911780008
132.9717    0.001214711784671751
140.9595    0.0016807107849209598
142.9385    1.0
153.0133    0.03676557847825104
154.9748    0.019798873021448008
156.9541    0.006431949907530339
157.0085    0.0064427762904582095
158.9698    0.009103159052189615
170.9698    0.5026997643444564
171.0239    0.13600556566803318
174.9105    0.016400789671962235
174.9644    0.001145319461183874
184.9854    0.007161130388780639
185.0396    0.02014640847543834
187.001     0.0049227852823858775
199.0011    0.9137003021112813
202.9415    0.008850075272781859
215.0324    0.09682881526616544
230.9732    0.05801268925675961
276.9878    0.0012538310421163236
292.9652    0.006178915314112663
338.9536    0.0014857775977125235
339.0076    0.011518207560506056
384.9949    0.0042837408605143614


