PRECURSORMZ: 264.00900605
COMPOUNDNAME: Challenge-149
FORMULA: C8H10NO5PS
SMILES: COP(=S)(OC)Oc1ccc(cc1)[N+]([O-])=O
INCHIKEY: RLBIQVVOMOPOHC-UHFFFAOYSA-N
PRECURSORTYPE: [M+H]+
IONMODE: positive
CHARGE: 1
PARENTMASS: 263.00173005
NUM PEAKS: 25
78.9849     0.01243332045854613
78.9944     0.19361069985528995
92.0257     0.02140859084101325
95.0494     0.013581547772224166
108.0444    0.07534424141324104
122.0601    0.6571398015691327
123.0317    0.11993317842211129
123.0679    0.21816318959882705
123.9979    0.02099895298856595
124.9822    0.14824736588060441
127.0156    0.46675177712645255
138.0008    0.018402670189488542
139.009     0.026847512070709796
141.9849    0.01970892795673308
142.9927    0.8301793287572934
150.03      0.029317275020255114
153.9638    0.018854322180648385
154.9715    0.032664560548819235
157.0083    0.07744924524941837
185.9899    0.05088198658125702
199.9569    0.05469572453620927
217.9672    0.027894523504762164
231.9831    0.02272773930990822
249.9936    0.7009347668430147
264.0092    1.0


