PRECURSORMZ: 313.216206136
COMPOUNDNAME: Challenge-172
FORMULA: C21H28O2
SMILES: CCC12CCC3C(CCC4=CC(=O)CCC34)C1CCC2(O)C#C
INCHIKEY: WWYNJERNGUHSAO-UHFFFAOYSA-N
PRECURSORTYPE: [M+H]+
IONMODE: positive
CHARGE: 1
PARENTMASS: 312.208930136
NUM PEAKS: 160
53.0388     0.0030314323330750325
55.0544     0.01025012130436923
57.0337     0.00509895321085221
57.0701     0.0027639764234910665
65.0387     0.0017244810290121839
67.0543     0.046908338261816396
69.0336     0.0010993579603722423
69.07       0.014299878859148544
71.0493     0.0013042026993858272
77.0387     0.0018714049756909314
79.0542     0.05983909248668535
81.0336     0.005924486674678464
81.0699     0.07038957119787613
83.0491     0.09607848233474464
91.0542     0.09931176660127103
93.0699     0.06974226134925228
95.0491     0.013824048593351264
95.0855     0.056412179509467336
97.0648     0.012711765198460663
97.1012     0.00159947491861118
103.0542    0.005234569688348894
105.0699    0.09293895184418788
107.0491    0.05507129611588488
107.0855    0.053365703541244175
109.0648    0.24163161218541332
109.1011    0.024999649297407157
111.0805    0.003630989613006789
115.0542    0.006671676836898422
116.0622    0.004340584672429148
117.0699    0.05542633408126937
119.0855    0.06838794690698387
121.0648    0.01802437159259082
121.1012    0.02703243340609587
123.0804    0.04298402250624207
123.1168    0.02816953169886705
125.096     0.01471662219270105
128.0619    0.011294979436349072
129.0699    0.04861865886681151
130.0777    0.00769235047504495
131.0855    0.0859337751296696
133.0648    0.014255382660850713
133.1012    0.08258472135538678
135.0804    0.07194130107821899
135.1168    0.02278983783512107
137.096     0.007732035808326876
137.1325    0.006819076276049673
141.0698    0.015999129741197837
142.0777    0.008497280699429203
143.0855    0.05515269461799322
144.0571    0.00133009982674001
144.0933    0.004526037494453305
145.0649    0.005416399300763576
145.1012    0.06611371589664713
147.0804    0.020428921965187582
147.1168    0.029766719520200983
148.0882    0.001479893940650966
149.0961    0.045456112173881014
149.1324    0.008094398724492519
151.1116    0.006115886379933375
153.07      0.004323066755184288
154.0777    0.0016546029995011848
155.0855    0.02126846524455546
156.0935    0.004902533940265409
157.065     0.004560092222302929
157.1012    0.062195130793563806
158.1089    0.0035696403263057413
159.0804    0.01649650777673318
159.1168    0.05539824560059734
161.0961    0.03202774216724047
161.1324    0.011467236804373875
163.1117    0.021539688517575407
163.1482    0.0030552575181169083
165.07      0.004921064161620279
165.1276    0.0014316346820164528
166.0777    0.0015272721397040776
167.0855    0.012515430914085008
168.0931    0.005951416545864326
169.1012    0.02441098961644927
170.1089    0.00418883049678765
171.0804    0.0031462669925088208
171.1168    0.04098255097537491
173.096     0.008739699025743893
173.1325    0.021531185593361247
175.1118    0.02268737028307164
175.1481    0.01497699627661424
177.1274    0.0035846699763811486
178.0785    0.0014921706829500534
179.0854    0.006606861403712301
180.0931    0.001596179820323228
181.101     0.018347263254664646
182.1092    0.0032985171003444887
183.1169    0.03254418938731784
184.1249    0.001530681270123444
185.0961    0.009083941590762864
185.1325    0.05015169715957579
187.1118    0.013759225629741372
187.1481    0.025945470523253432
188.1195    0.004067831647608527
189.1274    0.01599382294398776
191.1427    0.00298012970746154
193.1012    0.010289465617031736
194.109     0.0010327718018247208
195.1169    0.01963433746729214
196.1247    0.0013485235463872383
197.0961    0.00293013737558449
197.1326    0.02083351119477101
198.1402    0.0012220005934834553
199.1116    0.008264877836732151
199.1482    0.023416295940318424
201.1272    0.009727654048373034
201.164     0.0057736770293330235
203.1431    0.006979719579067384
205.1015    0.001603174508233206
206.1093    0.004090624088818723
207.1167    0.013303505898516395
208.1247    0.00342337260227004
209.1323    0.011622790616696094
210.1403    0.0010468612247033701
211.1118    0.005170834333086737
211.1483    0.010179582749115885
213.1272    0.007271787065090057
213.1636    0.004033122848665506
215.143     0.0062227893515848995
215.1793    0.003463310742635762
217.1587    0.001325788121242749
219.1164    0.003116452969018029
220.1248    0.003658433704558841
221.1324    0.014362158691072928
222.14      0.0014555039738261405
223.1488    0.006608689145139408
225.1269    0.006678220775156865
225.1638    0.01834744183328554
227.1429    0.004701615779361854
227.1794    0.037517867544062874
229.1584    0.0011376361801835046
233.1325    0.0033229210522420353
234.1402    0.0012176566147414543
235.1481    0.013734673220918021
236.1554    0.00121691325433761
237.1638    0.02355137883350207
238.1355    0.0017028633339105223
239.1434    0.006943503619595006
239.1796    0.004086222018236191
241.1587    0.005853940589001347
243.1744    0.005313065749980292
245.19      0.12792990500822235
247.1481    0.0012787380335111604
248.1559    0.005996039685591468
249.1639    0.009759293661741282
251.1798    0.005606475802984148
253.1586    0.00475228047050432
253.1954    0.005187796074747245
255.1745    0.004200956630611285
266.1664    0.006546798743701554
267.1745    0.00824479849962976
267.2104    0.0017074644228356184
277.1952    0.01882858857826632
284.177     0.0011323595046685184
295.2058    0.048679402492286264
313.2162    1.0


