PRECURSORMZ: 123.09167432
COMPOUNDNAME: Challenge-083
FORMULA: C7H10N2
SMILES: CN(C)C1=CC=NC=C1
INCHIKEY: VHYFNPMBLIVWCW-UHFFFAOYSA-N
PRECURSORTYPE: [M+H]+
IONMODE: positive
CHARGE: 1
PARENTMASS: 122.08439831999999
NUM PEAKS: 5
79.0414     0.0023723605496984764
80.0494     0.005760261322276157
107.0602    0.0063055690565251765
108.0681    0.010017226061137545
123.0914    1.0


