PRECURSORMZ: 361.120112832
COMPOUNDNAME: Challenge-201
FORMULA: C20H21ClO4
SMILES: CC(C)OC(=O)C(C)(C)Oc1ccc(cc1)C(=O)c1ccc(Cl)cc1
INCHIKEY: YMTINGFKWWXKFG-UHFFFAOYSA-N
PRECURSORTYPE: [M+H]+
IONMODE: positive
CHARGE: 1
PARENTMASS: 360.112836832
NUM PEAKS: 15
59.0493     0.006580990720365709
65.0387     0.004343231040918623
75.0231     0.0017172581078720613
86.9996     0.004209288782338434
87.044      0.006760905235832375
93.0333     0.0030500301288979887
110.9993    0.005704615571502768
111.0441    0.007379141770551704
121.0284    0.4567247932325656
129.0102    0.012898355240588697
138.9945    1.0
233.0364    0.736147418808586
273.0676    0.005135124710104648
319.073     0.005194601938922194
361.1201    0.2899390693584467


