PRECURSORMZ: 225.11347238399998
COMPOUNDNAME: Challenge-097
FORMULA: C13H12N4
SMILES: Cn1c2cc(cnc2[nH]c1=N)-c1ccccc1
INCHIKEY: UQVKZNNCIHJZLS-UHFFFAOYSA-N
PRECURSORTYPE: [M+H]+
IONMODE: positive
CHARGE: 1
PARENTMASS: 224.106196384
NUM PEAKS: 10
140.0492    0.0011046168078386366
157.0761    0.002787505066102714
165.0771    0.0015565139290029967
167.0606    0.002084088441120255
181.0757    0.0012102277653446621
183.0918    0.002490483481375334
184.0869    0.0020858714453429877
208.0871    0.0041634494539820365
210.0901    0.04333953648687055
225.1135    1.0


