PRECURSORMZ: 317.164187628
COMPOUNDNAME: Challenge-146
FORMULA: C13H24N4O3S
SMILES: CCCCC1=C(C)N=C(NCC)N=C1OS(=O)(=O)N(C)C
INCHIKEY: DSKJPMWIHSOYEA-UHFFFAOYSA-N
PRECURSORTYPE: [M+H]+
IONMODE: positive
CHARGE: 1
PARENTMASS: 316.156911628
NUM PEAKS: 75
67.0543     0.0012232941772634058
69.0084     0.0034055930196870794
69.0449     0.0014967831544274305
70.0651     0.002555501782778027
71.0604     0.0037156627029563943
81.0699     0.0015791408720487376
82.0652     0.0014169097835545425
84.0808     0.0018869376178894197
86.0712     0.004097646598345914
93.0699     0.0015669862723656125
95.0603     0.002957843304147511
95.0855     0.002149605080496856
96.0444     0.011077387335147838
96.0807     0.00292915655310524
97.0396     0.006481533418895893
98.06       0.010080046634598017
108.0114    0.22830211936004743
109.0759    0.0023513096784381522
110.06      0.0013607969818837838
110.0713    0.001630200244150189
110.0964    0.006238911638625365
112.0506    0.001220167272568841
112.1121    0.0020975555889316743
120.0807    0.0015893741171937453
122.0712    0.0030636597007602183
122.0964    0.0011279902239734675
123.0554    0.0013357906487959
123.0917    0.0012683212027278419
124.0632    0.001002810916699305
124.087     0.0010591785010693176
137.0947    0.0012123095098621989
137.1072    0.0020323990067806323
138.0661    0.010927688855392257
138.0913    0.0026038154188905626
138.1024    0.003069383263404339
139.0739    0.010936182569503801
139.123     0.001345261843770535
140.1069    0.04400427830419209
142.0975    0.001688261688246809
148.0869    0.007215858233597923
150.1026    0.06837378390235684
151.074     0.0015229192060679255
151.123     0.00583286873071407
152.0819    0.007001382042469558
153.0896    0.002855349423298355
154.0974    0.002826730461114059
164.0817    0.002188551215608185
164.1183    0.0010939392486825291
165.0898    0.01576789661468418
165.1022    0.02063988040115194
166.0975    0.25338018225137876
167.1053    0.026251430574696016
179.129     0.0011809542906394664
180.1132    0.006745521328029227
180.1495    0.013631176013057375
181.1209    0.004229081438454749
182.1289    0.008391362989434405
191.1178    0.0015145464203852265
192.1494    0.01621285434844613
193.1335    0.01831010948337169
194.1288    0.026735218972717995
196.1318    0.0016685592588136316
208.1444    0.10443695080109885
209.1522    0.026348170445363146
210.16      0.1457626701511825
224.1756    0.008994386531057086
228.0804    0.001485807391494856
237.2073    0.0963582940793717
244.0753    0.0026276561283103826
253.2021    0.001371020173596465
254.0957    0.0030060285435671865
262.0857    0.005619188196944143
272.1063    0.10238957792496974
290.117     0.004256645651967499
317.1643    1.0


