PRECURSORMZ: 195.04629636800001
COMPOUNDNAME: Challenge-014
FORMULA: C10H9FO3
SMILES: OC(=O)CCC(=O)C1=CC=C(F)C=C1
INCHIKEY: WUYWHIAAQYQKPP-UHFFFAOYSA-N
PRECURSORTYPE: [M-H]-
IONMODE: negative
CHARGE: -1
PARENTMASS: 196.053572368
NUM PEAKS: 3
149.0407    0.10316623745687638
151.0565    1.0
195.0465    0.009082207340938847


