PRECURSORMZ: 395.1864428039999
COMPOUNDNAME: Challenge-110
FORMULA: C21H27FO6
SMILES: CC12CC(O)C3(F)C(CCC4=CC(=O)C=CC34C)C1CC(O)C2(O)C(=O)CO
INCHIKEY: GFNANZIMVAIWHM-UHFFFAOYSA-N
PRECURSORTYPE: [M+H]+
IONMODE: positive
CHARGE: 1
PARENTMASS: 394.1791668039999
NUM PEAKS: 267
53.0388     0.002500784838090809
55.0181     0.023972745770594734
55.0544     0.002874660775536306
57.0336     0.0029580977850124993
59.0493     0.01060507644904366
67.0543     0.02155087727457706
69.0336     0.05433213417824545
69.07       0.01039997209464566
71.0492     0.022789149468054184
73.0284     0.004232033021335969
77.0386     0.0021012731817917564
79.0542     0.030691257485029943
81.0334     0.0197542933550375
81.0699     0.0383438544270682
83.0491     0.026230530783094005
85.0649     0.0037069844776466488
87.044      0.0761790686587989
91.0542     0.049231016801348754
93.0699     0.06301706179873263
95.0491     0.046491436544386956
95.0855     0.032360723213766644
97.0285     0.009456901342945178
97.0648     0.022536345561304575
99.0439     0.026219536073484102
103.0543    0.0030216289750595897
105.0699    0.0901755944421836
107.0492    0.020595918841927796
107.0855    0.026621949886634497
109.0648    0.06947023080053485
111.0439    0.02371065868263473
111.0804    0.0034041741759200045
113.0597    0.02325706644962502
115.039     0.013835195628161153
115.0542    0.005724076507179815
117.0545    0.004019450031974885
117.0699    0.0320255240974362
119.049     0.005217817568746003
119.0855    0.04652918318702401
121.0648    0.23222050810999362
123.0443    0.01714447299575606
123.0804    0.020711651648159992
125.0597    0.03405714551479565
127.0389    0.003853748037904773
127.0753    0.003712398116388582
128.0619    0.026476786233358526
129.0699    0.024435639788384398
131.0855    0.03136215801406895
132.0569    0.003586898436137434
133.0648    0.040174073600372076
133.1011    0.004226693796872275
135.0804    0.07552340445322947
137.0597    0.06177363641648741
139.0753    0.015898610545898494
141.0547    0.019201395267716994
141.0697    0.01793668740189524
142.0777    0.01297230626126388
143.0855    0.09725856868786699
144.0569    0.0035087448404162547
145.0647    0.07760376722283588
145.1008    0.016333227137957096
146.0726    0.005201037149002965
147.0804    0.53826113365502
149.0598    0.017466017092029534
151.0389    0.005345121795244463
151.0753    0.030234670077321085
153.0548    0.005337587349572699
153.0699    0.004935713039939538
153.091     0.01352591128422766
155.0605    0.0029463217254810767
155.0701    0.028622931224928785
155.0854    0.03605952212080693
156.0932    0.0031535096796697863
157.0648    0.012651636532759723
157.1011    0.03129883146328702
158.0726    0.025560188361141795
159.0804    0.15679983256787397
160.0883    0.0032054322423114936
161.0597    0.01768855299110517
161.0961    0.07626853322481252
163.0754    0.03306924016045579
165.0546    0.0024217010638916342
165.07      0.013042385907796057
165.0912    0.002481418522178943
166.0778    0.005150435439800012
167.0703    0.010375285157839661
167.0855    0.012567808848322771
168.0929    0.0025867333294575896
169.0648    0.034341742921923143
169.1011    0.018546084529969187
170.0724    0.009842478925643858
171.0804    0.28276921574327074
171.1168    0.01837504331143538
172.0883    0.0043499424452066735
173.0807    0.014577719900005814
173.0961    0.0932593035288646
175.0754    0.07223248880879019
177.0912    0.002755002616126969
178.0777    0.014674458461717343
179.0703    0.012398330329631998
179.0856    0.028189765711295854
180.0933    0.014692969013429452
181.0646    0.005370831928376257
181.101     0.02433013894541015
182.0726    0.010474758444276495
182.1091    0.008777554793325969
183.0805    0.044046257775710716
183.1168    0.012578208243706762
184.0884    0.009610845881053428
185.0961    0.1390471530724958
187.0754    0.1906151688855299
187.1116    0.034444713679437244
189.0707    0.004724004418347771
189.0909    0.01723267251903959
190.0778    0.013760762746351955
191.0857    0.022926071740015114
192.0932    0.02995771873728272
193.0862    0.0026551200511598164
193.1011    0.03157568978547759
194.0727    0.010354281727806523
194.1094    0.002333743387012383
195.0805    0.047188623917214116
195.1169    0.034748119295389804
196.0882    0.03602385907796058
197.0809    0.01264421370850532
197.0961    0.10161158072205104
197.1322    0.018296964129992443
198.1039    0.012489394802627753
199.0752    0.004514118946572873
199.1118    0.06633664554386373
201.091     0.013990312191151677
202.0773    0.008709949421545259
203.0855    0.011215440962734725
203.1069    0.00567386547293762
204.0933    0.011209673856171153
205.1012    0.03353005057845474
206.0729    0.003713495726992617
206.1089    0.024623610255217723
207.0803    0.0032900598802395207
207.1168    0.0545806034532876
208.0882    0.05254634032905064
209.0961    0.13064088832044649
209.1324    0.015635425847334457
210.1039    0.05641476658333818
211.1117    0.11743581419684901
212.1194    0.004666965874077089
213.0911    0.027501675483983492
213.1273    0.10744153014359631
215.0857    0.0050904761351084245
215.1067    0.01479967908842509
215.1433    0.003903438172199291
216.0938    0.009382226614731702
217.1011    0.02138418929132027
218.0726    0.0045370571478402415
218.109     0.011597669902912621
219.0803    0.013463180047671648
219.117     0.02645120632521365
220.0879    0.019631788849485497
221.0961    0.08366587058891925
221.1324    0.04373544793907331
222.1039    0.052506956572292304
223.1117    0.24556916458345446
224.1196    0.056459247718155914
225.1273    0.3990103831172606
226.0984    0.004370331957444335
226.1347    0.0025151840009301784
227.0855    0.004781601069705249
227.1065    0.024708423928841348
227.1431    0.015509423870705192
228.093     0.009881490611010988
229.1009    0.009596744375327015
230.1096    0.017741554560781348
231.0805    0.014569106447299576
231.1168    0.011457008313470147
232.088     0.017483616068833207
232.1245    0.012417398988430904
233.096     0.04393348293703855
233.1322    0.025472472530666822
234.1038    0.037468147200744144
235.1117    0.1321032033021336
236.1194    0.01747500261612697
237.091     0.013673418987268182
237.1274    0.1677671019126795
238.0987    0.003083727690250567
239.1067    0.02935168885529911
239.143     0.06757017382710308
241.1016    0.004505152026044997
241.1223    0.04345738038486135
241.1583    0.003094331724899715
242.1089    0.016733631765595024
243.1037    0.002903533515493285
243.1167    0.02331291436544387
243.1378    0.011871737689669206
245.0962    0.040560990640079064
245.1324    0.02630122434742166
246.104     0.044829877332713215
247.112     0.04327279576768792
247.1485    0.015234425905470613
248.1196    0.044790791233067846
249.1273    0.10098908668100692
250.1353    0.01488439974420092
251.1068    0.027571290041276668
251.143     0.08652246729841288
252.114     0.0027469658740770886
252.151     0.0047587000755770015
253.1222    0.06888438579152374
253.1588    0.021588475088657636
255.1176    0.004695726992616708
255.1379    0.011606599616301378
257.1324    0.018275960699959303
258.1039    0.02093361083657927
259.1119    0.035379803499796525
260.1195    0.07324549037846637
260.1326    0.004032993430614499
261.0914    0.010881562699843033
261.1274    0.16225672460903434
262.0991    0.004662984710191268
262.1351    0.04416195337480379
263.1068    0.019266544968315796
263.143     0.1875481285971746
264.1141    0.004332120225568281
265.1224    0.026269263414917737
265.1587    0.0809684460205802
267.1382    0.03474973780594152
269.1174    0.005031205162490553
269.1537    0.014323688157665252
270.1033    0.005397472239986047
271.1327    0.0086563339340736
273.1273    0.04358154060810418
275.143     0.20443390035463055
276.1149    0.02200253473635254
277.1225    0.042939401197604796
277.158     0.004872219057031568
278.1302    0.02293570838904715
279.102     0.011607399569792454
279.138     0.11689610604034649
280.1457    0.024733948026277545
281.1173    0.004361439451194698
281.1536    0.06857463635835126
283.1335    0.008537866403116098
283.1501    0.004048750654031742
283.1694    0.014454564269519214
285.1278    0.018872893436428114
285.1483    0.0026033835242137084
288.1145    0.015409913377129238
290.1297    0.0035331899308179756
291.1379    0.14270775885122958
293.1536    0.19007170280797628
295.1331    0.04569152026044997
297.1486    0.06043754665426429
303.1381    0.12653924771815592
308.1417    0.002863405615952561
309.1485    0.11436843904424161
311.1641    0.16463645601999885
313.1443    0.003927883262601011
315.1221    0.004712358583803268
321.1486    0.33374076390907503
327.1591    0.09916874600313935
329.156     0.004546879832567874
329.1744    0.03891916981570839
339.1592    0.411658819836056
341.1552    0.01456406487994884
345.1698    0.015456217661763852
357.1696    0.7193283739317481
359.1651    0.011647713505028778
375.1803    1.0
377.1762    0.003349312249287832
395.1866    0.2771534678216383


