PRECURSORMZ: 471.17350642399987
COMPOUNDNAME: Challenge-106
FORMULA: C20H22N8O6
SMILES: CN(CC1=Nc2c(N)nc(N)nc2NC1=O)c1ccc(cc1)C(=O)NC(CCC(O)=O)C(O)=O
INCHIKEY: HODZDDDNGRLGSI-UHFFFAOYSA-N
PRECURSORTYPE: [M+H]+
IONMODE: positive
CHARGE: 1
PARENTMASS: 470.1662304239999
NUM PEAKS: 27
106.04      0.012123854100728219
118.0651    0.0027597408526534384
121.0508    0.012449950856734454
122.0462    0.0010486267470464542
134.06      0.05765089423827169
146.06      0.0014222328247026172
148.0617    0.17675840716997648
149.0459    0.004401479622701209
158.06      0.0013600852880268244
163.0726    0.016206512823480044
165.052     0.0013057326248808903
174.041     0.0012713813573152725
186.0553    0.001370494471791112
191.0676    1.0
210.0778    0.001121885102218569
254.1036    0.001220094741833981
265.0832    0.0052404809792591005
268.1303    0.001579860353543169
279.099     0.001567250151235925
280.0941    0.02019483531479467
281.1021    0.006874203812779249
282.0984    0.0014488661102158593
293.0776    0.00105490301389602
296.1257    0.005708356008309662
298.1413    0.01534992254144787
324.1205    0.5317990952564302
471.1746    0.0012354249801571932


