PRECURSORMZ: 311.154274576
COMPOUNDNAME: Challenge-130
FORMULA: C22H18N2
SMILES: C1=CN(C=N1)C(C1=CC=CC=C1)C1=CC=C(C=C1)C1=CC=CC=C1
INCHIKEY: OCAPBUJLXMYKEJ-UHFFFAOYSA-N
PRECURSORTYPE: [M+H]+
IONMODE: positive
CHARGE: 1
PARENTMASS: 310.146998576
NUM PEAKS: 13
91.0542     0.09850336834410721
115.0543    0.052374543049970294
141.0698    0.010283482460749333
165.0699    0.10732397483705576
166.0777    0.0021226867221754704
178.0776    0.002699821648829405
202.0774    0.00796805825643397
215.0856    0.03320160664506316
227.0857    0.0063857093464782
228.0934    0.09314943736891002
241.1011    0.033675613280704515
242.1091    0.011977255697939367
243.1169    1.0


