PRECURSORMZ: 161.98718051999998
COMPOUNDNAME: Challenge-113
FORMULA: C6H5Cl2N
SMILES: C1=CC(=C(C=C1N)Cl)Cl
INCHIKEY: SDYWXFYBZPNOFX-UHFFFAOYSA-N
PRECURSORTYPE: [M+H]+
IONMODE: positive
CHARGE: 1
PARENTMASS: 160.97990452
NUM PEAKS: 6
126.0105    0.0018045011571577547
127.0183    0.4400783887785933
144.9606    0.0020246727487437384
160.9792    0.0014784952153281872
161.9871    1.0
172.9668    0.00882857267967802


