PRECURSORMZ: 487.028963212
COMPOUNDNAME: Challenge-074
FORMULA: C21H11ClF6N2O3
SMILES: FC1=CC(OC2=CC=C(C=C2Cl)C(F)(F)F)=CC=C1NC(=O)NC(=O)C1=C(F)C=CC=C1F
INCHIKEY: RYLHNOVXKPXDIP-UHFFFAOYSA-N
PRECURSORTYPE: [M-H]-
IONMODE: negative
CHARGE: -1
PARENTMASS: 488.036239212
NUM PEAKS: 29
95.0124     0.03842144936493923
104.0131    0.2535656649784858
124.02      0.06936266951000866
136.0402    0.011178027104503718
150.0236    0.14180783462110821
156.0267    1.0
178.9881    0.2609435219184608
194.9831    0.40587830607430947
222.9778    0.01461615417479073
238.0485    0.039475093080766605
241.9998    0.012194269674231744
248.0332    0.04636438419226669
249.0184    0.013989310966165642
256.015     0.023579605988543282
268.0392    0.009485999254969171
269.0368    0.13690956680710265
283.0019    0.05322204462020846
284.0095    0.1398670357198043
289.043     0.20362295284826826
304.0158    0.7645824397130927
327.0161    0.013865352881950658
329.011     0.6812954303707138
367.0502    0.017776871601438
396.042     0.009600767343285457
411.04      0.42546582058862564
444.0217    0.018169690495898592
447.0166    0.2965558246300867
467.0227    0.4325613523057593
487.0291    0.8378472242258551


