PRECURSORMZ: 294.08841527600003
COMPOUNDNAME: Challenge-030
FORMULA: C16H13N3O3
SMILES: COC(=O)Nc1nc2ccc(cc2[nH]1)C(=O)c1ccccc1
INCHIKEY: OPXLLQIJSORQAM-UHFFFAOYSA-N
PRECURSORTYPE: [M-H]-
IONMODE: negative
CHARGE: -1
PARENTMASS: 295.095691276
NUM PEAKS: 3
157.0281    0.01631278555409067
262.0623    1.0
294.0886    0.052545651033357337


