PRECURSORMZ: 214.08962572
COMPOUNDNAME: Challenge-134
FORMULA: C10H15NO2S
SMILES: CCCCNS(=O)(=O)C1=CC=CC=C1
INCHIKEY: IPRJXAGUEGOFGG-UHFFFAOYSA-N
PRECURSORTYPE: [M+H]+
IONMODE: positive
CHARGE: 1
PARENTMASS: 213.08234972
NUM PEAKS: 21
50.0153     0.005507600269166049
51.0232     0.007670149613403547
53.0388     0.11390001964203958
55.0181     0.004040912954394464
57.0701     0.07102379704984409
72.0809     0.034823669620181415
77.0386     0.27170308722241954
79.0543     0.004167345958819685
79.9802     0.0035523068226796756
81.0335     0.01863004675946154
81.0699     0.004989045374299681
94.0414     0.03857165417224607
95.0492     0.5182976352434039
105.0448    0.17606487659915374
109.0648    0.006783036145987052
141.0005    1.0
149.0235    0.0010119556805241868
158.0271    0.6942960134977529
159.011     0.001058507492552839
173.0269    0.004270637479839579
214.0897    0.10877864449251114


