PRECURSORMZ: 282.144832088
COMPOUNDNAME: Challenge-202
FORMULA: C13H19N3O4
SMILES: CCC(CC)Nc1c(cc(C)c(C)c1[N+]([O-])=O)[N+]([O-])=O
INCHIKEY: CHIFOSRWCNZCFN-UHFFFAOYSA-N
PRECURSORTYPE: [M+H]+
IONMODE: positive
CHARGE: 1
PARENTMASS: 281.137556088
NUM PEAKS: 75
57.0701     0.008224358354919976
60.081      0.05873063713137312
66.034      0.0055615766254284256
67.0418     0.00952745997026306
68.0496     0.005645636109367855
69.0701     0.0057553804356221105
71.0857     0.07205532263574618
72.089      0.021846664724437567
73.0649     0.053895779890600536
78.0339     0.02468941996441482
80.0495     0.028032400979544448
81.053      0.01318081446455366
81.07       0.006725836400845912
91.0417     0.07760073397580165
91.0543     0.008398224979820335
92.0451     0.03443169861585642
92.0496     0.012221494584809015
95.0856     0.006689554315897696
96.0445     0.009961228461104348
103.0417    0.009233611005038899
104.0451    0.0058507556193226175
105.0449    0.01239787580965628
107.0604    0.008414749493757145
108.0809    0.007239533247142427
109.1016    0.005255873117597422
118.0526    0.036732916795839274
119.056     0.022951292558256994
119.0605    0.025945283023612455
119.0855    0.006778283771167095
120.0639    0.02109623625456804
120.0809    0.011755575137503714
121.0398    0.005369568958053958
131.0483    0.006517483833816556
131.0603    0.005128706205996747
133.0887    0.01253330497822536
134.0964    0.09497590115179454
135.0551    0.010041156816559574
136.0586    0.006378282765327116
145.0891    0.007948470817888003
146.0966    0.04188084173000166
147.0553    0.012791051472783227
148.0631    0.027253952681695115
148.0935    0.00636804475125757
148.112     0.007334189973715247
149.0587    0.024130460319073996
149.0667    0.020636064464284242
150.062     0.009372093616400652
150.0682    0.0051157739776983725
151.0628    0.006281829895935078
158.0965    0.020733954247931653
159.1044    0.009821488549769143
160.112     0.0374808306657619
163.0505    0.006558256275812818
176.1435    0.5830949552455094
177.0532    0.00823046524050532
178.0608    0.009399574601534696
179.0651    0.006052821686484708
181.0506    0.005596062567557422
184.0525    0.024941059573387343
187.0454    0.00655268823307324
194.0562    0.058753268530895277
195.0523    0.006667102530657464
195.0596    0.06592688333657237
196.0608    0.11109969562563786
197.0689    0.03075822732199057
202.1223    0.005721612950620801
212.0667    0.13605045437024899
214.0715    1.0
238.048     0.006717574143877506
242.051     0.05340956402943806
256.0581    0.01032476776771419
269.0743    0.00958834921183457
284.0189    0.0220120894780876
284.0537    0.024753901491624767
284.0988    0.05520409032011935


