PRECURSORMZ: 325.962851684
COMPOUNDNAME: Challenge-066
FORMULA: C13H7Cl2NO5
SMILES: OC(=O)C1=C(C=CC(OC2=C(Cl)C=C(Cl)C=C2)=C1)[N+]([O-])=O
INCHIKEY: IUSYSZLVZMUVDO-UHFFFAOYSA-N
PRECURSORTYPE: [M-H]-
IONMODE: negative
CHARGE: -1
PARENTMASS: 326.970127684
NUM PEAKS: 19
79.0172     0.016371688175319574
81.0328     0.004586618726129228
95.0126     0.03223282892319517
97.028      0.008248892004880886
107.0128    0.017724705859020837
109.0284    0.007021032141975601
122.0004    0.028987033703366315
123.0082    0.014633682890818695
124.9795    0.0078972708894969
125.0239    0.0073029722436402
137.0117    0.2364266075342864
156.0214    0.0059088159614546065
160.9566    0.30698399400314474
164.003     0.013082342321916098
188.003     0.04182375045192157
250.967     0.00497401836201913
251.9749    0.0056878467467944725
281.973     1.0
325.9621    0.019555440492548284


