PRECURSORMZ: 269.16483926
COMPOUNDNAME: Challenge-178
FORMULA: C17H20N2O
SMILES: CN(C)C1=CC=C(C=C1)C(=O)C2=CC=C(C=C2)N(C)C
INCHIKEY: VVBLNCFGVYUYGU-UHFFFAOYSA-N
PRECURSORTYPE: [M+H]+
IONMODE: positive
CHARGE: 1
PARENTMASS: 268.15756326
NUM PEAKS: 16
79.0542     0.01156571118771866
81.0334     0.0019292649338047477
91.0542     0.004308784794341945
92.0621     0.0011634267198347128
93.0698     0.005103250860329952
95.0491     0.001138776338156511
96.0807     0.001593726233465391
103.0542    0.0024029097323511116
105.0572    0.007538191937586561
118.0651    0.0029505743714474484
119.0727    0.0015872743506620878
120.0807    0.033916390007632344
124.0758    0.0020223970292694133
148.0755    1.0
254.142     0.001124110374052619
269.1647    0.8326113582627794


