PRECURSORMZ: 230.247840612
COMPOUNDNAME: Challenge-144
FORMULA: C14H31NO
SMILES: CCCCCCCCCCCC[N+](C)(C)[O-]
INCHIKEY: SYELZBGXAIXKHU-UHFFFAOYSA-N
PRECURSORTYPE: [M+H]+
IONMODE: positive
CHARGE: 1
PARENTMASS: 229.24056461200001
NUM PEAKS: 10
57.0701     0.029360268158185033
58.0653     0.5059748502813776
62.0602     0.06375361788100557
69.07       0.0019743978317268824
71.0856     0.018955984807540086
83.0855     0.0014474626383322974
85.1012     0.007068681718354201
212.2373    0.03836469567290606
213.2447    0.0018792343514930146
230.2479    1.0


