PRECURSORMZ: 258.242755232
COMPOUNDNAME: Challenge-199
FORMULA: C15H31NO2
SMILES: CCCCCCCCCCCC(=O)NCC(C)O
INCHIKEY: MMBILEWCGWTAOV-UHFFFAOYSA-N
PRECURSORTYPE: [M+H]+
IONMODE: positive
CHARGE: 1
PARENTMASS: 257.235479232
NUM PEAKS: 20
55.0544     0.0036080966387111455
57.07       0.08160712964900098
58.0653     0.832152753338108
59.0493     0.0025856249452762205
67.0543     0.015900450691736887
69.0699     0.005245598480771607
71.0856     0.05172837446503789
76.0757     1.0
81.0699     0.019753721188673547
83.0855     0.010518479561879016
85.1012     0.030382507748547335
95.0855     0.049466735531315933
97.1012     0.0044265073944639525
109.1012    0.027209094902388636
123.1168    0.0057884888126755055
165.1637    0.0026217709572110737
183.1744    0.01096665103157085
240.2321    0.17420508790408804
241.2162    0.04805992733814816
258.2428    0.41443978877782217


