PRECURSORMZ: 299.200556072
COMPOUNDNAME: Challenge-155
FORMULA: C20H26O2
SMILES: CC12CCC3C(CCC4=CC(=O)CCC34)C1CCC2(O)C#C
INCHIKEY: VIKNJXKGJWUCNN-UHFFFAOYSA-N
PRECURSORTYPE: [M+H]+
IONMODE: positive
CHARGE: 1
PARENTMASS: 298.193280072
NUM PEAKS: 124
53.0388     0.002539745957472936
55.0181     0.0034136636556986347
55.0544     0.005721620623671283
67.0543     0.018337927079886213
69.07       0.006026549703094293
77.0387     0.0030109346423700446
79.0542     0.04828727655887347
81.0335     0.004026973402639172
81.0699     0.04465792779771496
83.0492     0.08277818234023909
91.0542     0.05374548732896827
93.0699     0.04025335079861834
95.0492     0.007181858244172833
95.0855     0.02748353085286633
97.0648     0.008014975532874977
103.0541    0.004345697547824775
105.0699    0.05682446544896125
107.0492    0.03337508981324263
107.0855    0.029620484309798634
109.0648    0.20201084880765938
109.1012    0.018394729793910918
111.0804    0.011020629450030317
115.0542    0.00852001983171205
116.0622    0.002899259930980089
117.0699    0.041002207154088935
119.0855    0.07322602339128484
121.0648    0.01042936951724437
121.1012    0.0251910428968137
123.0805    0.017081451666423626
123.1169    0.0055829504443089045
128.062     0.008605633747973488
129.0699    0.030476270765679478
130.0777    0.005454864994020351
131.0855    0.05698338452189671
133.0648    0.006937159482811162
133.1012    0.025391650494827795
135.0804    0.040531114405423355
135.1167    0.007570842276094993
137.096     0.004503772946253588
141.0699    0.011188591218200525
142.0779    0.005534177451780193
143.0855    0.04551359786037373
144.0935    0.0031963673858799026
145.1012    0.05954289263765043
147.0805    0.009813692402708246
147.1168    0.013771912681776586
149.0961    0.02192813879647659
149.1325    0.002319856587749146
151.1119    0.0011664505467913733
153.0699    0.0023887296316093855
154.0777    0.0026443919290767143
155.0854    0.015971456770231145
156.0935    0.004793901040309922
157.1012    0.02891285090651838
158.1092    0.0010613143128279609
159.0805    0.010409288512076452
159.1168    0.02023489464283054
161.096     0.01946350597039385
161.1325    0.011612066441596505
163.1118    0.014240953382666377
165.07      0.004812902057459708
166.0776    0.0011407290555405319
167.0855    0.006825759882673375
168.0934    0.001352041302917861
169.1012    0.02724888917130509
170.1089    0.0023645734528420378
171.1168    0.04991143110672488
173.0962    0.005061816369700765
173.1325    0.025098997725972714
175.1117    0.012463019404400786
179.0851    0.004532519955864819
180.0933    0.0022763198793867125
181.1011    0.014341993280626344
182.1091    0.0028191186123964055
183.1167    0.01642208547421618
185.0961    0.00873383135900331
185.1325    0.017547713743666517
187.1117    0.007535646376567542
187.1484    0.005378106838424876
189.1273    0.007556778447801435
191.0857    0.0010414526912483134
192.0935    0.0014344110226441108
193.1012    0.006722952218564857
194.1089    0.0024658193315343973
195.1169    0.0140847296945887
197.096     0.0013393346901350016
197.1326    0.011314758649272037
198.1402    0.001121555212091306
199.1117    0.00543783490209764
199.1482    0.008927852511475102
201.1276    0.006068481595819076
203.1436    0.001151409015432415
205.1014    0.0011745084848260483
206.1092    0.0025116295875012924
207.1169    0.010341710607341808
208.1249    0.0021560271316692046
209.1323    0.005592771210597861
211.1119    0.004603583308540402
211.1481    0.01572919803405217
213.1274    0.005106654565909996
213.1639    0.02614546237990477
215.143     0.0029141159385972
219.1172    0.001143210700117787
221.1325    0.013855491480185443
222.1402    0.0024716030165511443
223.1482    0.019900034869998504
225.1278    0.00554466412838209
225.164     0.002809904501689155
227.1424    0.004283433522737789
229.1589    0.0029487207016392226
231.1744    0.062082374065073206
234.1394    0.0011278637247275748
235.148     0.007852525160123214
237.1639    0.00501520617486218
239.1433    0.0032657151730034993
239.1794    0.008849885982610486
241.1585    0.00494787234318715
248.1561    0.00289473399817518
253.1583    0.005708581055731953
255.175     0.0020384897289541866
257.1902    0.0029575256725355562
263.1795    0.017228293355388887
281.1904    0.03230157396367425
299.2007    1.0


