PRECURSORMZ: 489.21771518799994
COMPOUNDNAME: Challenge-065
FORMULA: C24H34N4O5S
SMILES: CCC1=C(C)CN(C(=O)NCCC2=CC=C(C=C2)S(=O)(=O)NC(=O)NC2CCC(C)CC2)C1=O
INCHIKEY: WIGIZIANZCJQQY-UHFFFAOYSA-N
PRECURSORTYPE: [M-H]-
IONMODE: negative
CHARGE: -1
PARENTMASS: 490.22499118799993
NUM PEAKS: 10
109.0522    0.001767956568611435
124.0763    0.028863222211327227
169.0202    0.007041092773946939
182.0281    0.006207986686900682
210.0234    0.0047883010273757284
225.034     1.0
350.1181    0.08031839076613015
364.1339    0.14230860096902087
376.0973    0.03398577599111931
489.2179    0.4103149187014568


