PRECURSORMZ: 218.08454034
COMPOUNDNAME: Challenge-096
FORMULA: C9H15NO3S
SMILES: C[C@H](CS)C(=O)N1CCC[C@H]1C(O)=O
INCHIKEY: FAKRSMQSSFJEIM-RQJHMYQMSA-N
PRECURSORTYPE: [M+H]+
IONMODE: positive
CHARGE: 1
PARENTMASS: 217.07726434
NUM PEAKS: 14
70.0652     0.9357248735868148
75.0263     0.5317859958935445
95.0855     0.0030090926072824813
97.0647     0.002065498271778929
103.0212    0.011381044884416979
109.1011    0.001082942731271552
114.0549    0.002584196538715286
116.0706    1.0
137.0957    0.0011338576209237116
155.1065    0.0025745227096813754
172.079     0.2492367009459647
184.0969    0.004075702973395612
200.0739    0.040600800223663455
218.0845    0.39103328261078885


