PRECURSORMZ: 512.960039452
COMPOUNDNAME: Challenge-080
FORMULA: C10HF19O2
SMILES: OC(=O)C(F)(F)C(F)(F)C(F)(F)C(F)(F)C(F)(F)C(F)(F)C(F)(F)C(F)(F)C(F)(F)F
INCHIKEY: PCIUEQPBYFRTEM-UHFFFAOYSA-N
PRECURSORTYPE: [M-H]-
IONMODE: negative
CHARGE: -1
PARENTMASS: 513.9673154520001
NUM PEAKS: 6
168.9894    0.23921464704075296
196.9842    0.008505557413678947
218.9862    0.3656183752720526
268.9831    0.3110868460436615
318.9795    0.0485018905975225
468.9701    1.0


