PRECURSORMZ: 312.97281369200005
COMPOUNDNAME: Challenge-067
FORMULA: C6HF11O2
SMILES: OC(=O)C(F)(F)C(F)(F)C(F)(F)C(F)(F)C(F)(F)F
INCHIKEY: PXUULQAPEKKVAH-UHFFFAOYSA-N
PRECURSORTYPE: [M-H]-
IONMODE: negative
CHARGE: -1
PARENTMASS: 313.98008969200004
NUM PEAKS: 3
225.9904    0.00876785623206973
268.9831    1.0
312.9727    0.01769462586850925


