PRECURSORMZ: 219.04742656
COMPOUNDNAME: Challenge-128
FORMULA: C12H10O2S
SMILES: O=S(=O)(C1=CC=CC=C1)C1=CC=CC=C1
INCHIKEY: KZTYYGOKRVBIMI-UHFFFAOYSA-N
PRECURSORTYPE: [M+H]+
IONMODE: positive
CHARGE: 1
PARENTMASS: 218.04015056
NUM PEAKS: 24
50.0153     0.006944948147918813
51.0232     0.0199631200988763
53.0388     0.21998815621853973
55.018      0.011313490546371636
68.9971     0.0012801093015659408
77.0386     0.18568571021792962
78.0464     0.01268828162985139
79.0543     0.0012554155307445262
81.0335     0.0305294566246622
81.0699     0.0056382695992665405
94.0413     0.03806060274085971
95.0491     0.6118713405420588
97.0106     0.010763752729766868
105.0447    0.19238637013997678
106.0418    0.001403563270940753
107.0493    0.00127760122417992
109.0648    0.009804037290124345
125.0055    0.014883377750614794
126.0132    0.003770287797042508
141.0004    0.8448783161974094
149.0238    0.0014215961240752581
159.0115    0.001383922866722033
173.0266    0.003525657222328855
219.0475    1.0


