PRECURSORMZ: 369.12502178200003
COMPOUNDNAME: Challenge-204
FORMULA: C21H21O4P
SMILES: CC1=C(OP(=O)(OC2=C(C)C=CC=C2)OC2=C(C)C=CC=C2)C=CC=C1
INCHIKEY: YSMRWXYRXBRSND-UHFFFAOYSA-N
PRECURSORTYPE: [M+H]+
IONMODE: positive
CHARGE: 1
PARENTMASS: 368.11774578200004
NUM PEAKS: 41
65.0387     0.022445583865927536
77.0386     0.0019884544618391977
79.0543     0.018538107488485604
91.0542     0.13524294449338717
95.0491     0.0028960226889115565
105.0698    0.0022408875826790734
107.0491    0.06447257015410185
108.057     0.002671165465806679
109.0648    0.01852708847403946
119.0604    0.009502538151870668
141.0698    0.005417852372445581
152.0622    0.002937104720055388
153.0099    0.004069682032449966
153.0699    0.013935690396612731
154.0178    0.005004064445186936
165.0699    0.12975585645536633
166.0777    0.1941068648060836
171.0208    0.001782857629639433
178.0776    0.004432204456436984
179.0854    0.018434095375138813
180.0933    0.0038732926725147587
181.1011    0.03345639295036619
187.0155    0.0028091031783357514
189.0311    0.011116805910914478
195.0807    0.0021348940575558043
196.0883    0.026208348455528836
197.0963    0.0023889406394242097
199.1117    0.009428347156116472
215.0622    0.004023644971250141
241.1012    0.015178664638187607
243.057     0.028049398726460634
255.1167    0.0062896093277831555
256.1246    0.030219965999190003
261.0676    0.13487150031419273
271.1482    0.002426968019089549
275.0831    0.00972965980270253
277.0625    0.0018494285034601535
279.0782    0.04508641572417653
333.1042    0.0015745858015045332
351.1143    0.004299581921514917
369.1252    1.0


