PRECURSORMZ: 385.23733550399993
COMPOUNDNAME: Challenge-188
FORMULA: C24H32O4
SMILES: CC(=O)O[C@@]1(CC[C@H]2[C@@H]3C=C(C)C4=CC(=O)CC[C@]4(C)[C@H]3CC[C@]12C)C(C)=O
INCHIKEY: RQZAXGRLVPAYTJ-GQFGMJRRSA-N
PRECURSORTYPE: [M+H]+
IONMODE: positive
CHARGE: 1
PARENTMASS: 384.23005950399994
NUM PEAKS: 145
55.0545     0.0010679776580932916
57.07       0.001318834595747546
59.0493     0.003875681931985193
67.0543     0.004969983964101877
69.0699     0.0016372617156089192
71.0492     0.0011872968908777256
79.0543     0.005134132316281777
81.0699     0.010173912488265238
83.0491     0.01976164015042168
85.0648     0.006526339659206207
91.0543     0.004383701428913065
93.0699     0.01200179397740579
95.0855     0.009907303105562182
97.0648     0.031051860496973536
99.0804     0.008417747529024433
105.0699    0.012484744807100994
107.0855    0.015257523405678038
109.0648    0.004182590989404079
109.1012    0.013891539825447082
111.0804    0.0048178267410984126
113.0598    0.0012789770304333793
117.0698    0.004267258325781034
119.0855    0.014357634387714273
121.0648    0.018239651931234478
121.1013    0.010539982942509912
123.0805    0.006011437960345206
123.1166    0.0013442776532175116
128.0617    0.0011181633633903232
129.0696    0.0057132927302122665
131.0855    0.009641601159661667
133.1011    0.03607847993307025
135.0806    0.007882462361688445
135.1167    0.00493683446572675
137.0961    0.007683668885017502
141.07      0.0010608042637533753
142.0777    0.0050405376592077555
143.0853    0.009602796143645117
145.1011    0.02376262575448823
147.0806    0.006144678318490582
147.1168    0.01369268540152821
149.0961    0.00789310587949394
151.1118    0.008182244460765839
155.0855    0.010471149314179001
156.0934    0.0031871463608495
157.1012    0.027457681326769345
159.0801    0.005013596073371973
159.1168    0.016187777696944742
161.0961    0.03265421782043354
161.1324    0.002805034203982506
162.1037    0.0014937870568941592
163.1117    0.005683268954981073
165.1273    0.0012364542322929864
167.0853    0.003605283178327391
168.0934    0.00169940952758337
169.1011    0.03331847897339295
171.0805    0.004120090070358277
171.1167    0.028260917683679526
173.0961    0.022574243422147342
173.1324    0.011857145842314183
174.1041    0.0016200242860271758
175.1117    0.06606456267737584
177.1271    0.0017593700105487111
179.0853    0.00557326110729734
180.0934    0.0014549404419623544
181.1012    0.009765876467861258
182.1091    0.0028594465525527803
183.1168    0.06260144814530752
185.0962    0.008731146984639745
185.1324    0.01456801654824197
187.1117    0.0599654990205874
187.148     0.0035952636442507205
188.1201    0.002557346523220708
189.1273    0.015430735484300375
193.101     0.00954986200769135
194.109     0.007396452560597043
195.1168    0.01801559146692093
196.1245    0.004466451345521751
197.1325    0.03329807905883518
198.1402    0.02422873192575503
199.1115    0.0016200252534438098
199.1482    0.016862220909975304
200.1559    0.001653012225824452
201.1273    0.004817088602206794
201.1634    0.0014990246505497634
206.1093    0.001230321778251081
207.1167    0.010925405599097902
208.1245    0.008852001507622083
209.1324    0.13995844752074335
210.1402    0.01195964460208606
211.1117    0.004311181943207226
211.1481    0.05993476419413034
212.1558    0.003114809716887457
213.1272    0.0076884043894401444
213.1637    0.006129234479347976
215.1433    0.008471602645613618
219.1169    0.00533798634936433
220.1247    0.0010271072075634954
221.1327    0.01032977394955967
222.1399    0.007735233159017754
223.1481    0.0703564968992362
224.1559    0.31982801654050264
225.1269    0.005662380495023222
225.1637    0.08104285191327923
227.143     0.0017491473189789344
229.159     0.0034634734436394675
231.1384    0.0017755432818332313
232.125     0.0012513892102861929
233.1324    0.0027905171499751184
234.1405    0.016901035600158192
235.1481    0.010322689557550068
236.1562    0.001632635529265901
237.127     0.0056169583492312125
237.1637    0.02157784105112526
239.1429    0.012863690609325433
239.1789    0.006631226003230397
241.1587    0.034213119756118134
243.1743    0.007195429188585102
245.1322    0.0012447401557618173
247.1481    0.009569545066523437
248.1561    0.0016788016184493318
249.1637    0.05244564859867766
250.1713    0.0055978663819624
251.143     0.006769811338277735
252.1513    0.0034315351508899072
253.1586    0.006393606227376962
255.1743    0.04235484493859226
260.1562    0.00124313811381618
263.1795    0.01764186874710259
264.1873    0.007992245768713126
265.1589    0.01615177915658296
265.1951    0.12344661911104472
266.1668    0.002604799276527144
267.1743    0.4021408930106857
274.1716    0.0011637412632603797
281.19      0.04475162932309471
282.1978    0.14152825514414122
283.2057    0.04361599828496379
289.1949    0.013610579784397659
292.1819    0.0014474864967986248
295.1699    0.001305441679868679
307.2057    0.05256756727995722
310.193     0.004162514192002018
323.2008    0.0016203280548502015
325.2162    0.5315991938710674
385.2373    1.0


