PRECURSORMZ: 294.160088228
COMPOUNDNAME: Challenge-099
FORMULA: C18H19N3O
SMILES: CN1C2=C(C3=C1C=CC=C3)C(=O)C(CN1C=CN=C1C)CC2
INCHIKEY: FELGMEQIXOGIFQ-UHFFFAOYSA-N
PRECURSORTYPE: [M+H]+
IONMODE: positive
CHARGE: 1
PARENTMASS: 293.152812228
NUM PEAKS: 15
83.0604     0.007394461566779271
143.0729    0.0020303184015851646
143.0856    0.0036827636975521293
154.065     0.001297147585775919
155.0731    0.0018566691529588114
167.073     0.00800738975047617
168.0808    0.0032883006519876844
169.0886    0.0214776438997154
170.0964    0.5446858144023702
171.0676    0.006221655892605169
182.0965    0.027322555347739523
183.1041    0.001373909584406854
184.1121    0.3698726458609905
212.1069    0.1581230336506555
294.16      1.0


