PRECURSORMZ: 325.18428981999995
COMPOUNDNAME: Challenge-081
FORMULA: C18H30O3S
SMILES: CCCCCCCCCCCCC1=CC=C(C=C1)S(O)(=O)=O
INCHIKEY: KWXICGTUELOLSQ-UHFFFAOYSA-N
PRECURSORTYPE: [M-H]-
IONMODE: negative
CHARGE: -1
PARENTMASS: 326.19156581999994
NUM PEAKS: 7
170.0042    0.009311855749426428
183.0121    0.2192221653736581
184.0199    0.028172645060081554
197.0277    0.023079585924403873
255.1376    0.00552440057861613
261.2236    0.0042584111581373
325.1842    1.0


