PRECURSORMZ: 264.175818544
COMPOUNDNAME: Challenge-100
FORMULA: C16H22FNO
SMILES: CC1CCN(CCCC(=O)C2=CC=C(F)C=C2)CC1
INCHIKEY: DKMFBWQBDIGMHM-UHFFFAOYSA-N
PRECURSORTYPE: [M+H]+
IONMODE: positive
CHARGE: 1
PARENTMASS: 263.168542544
NUM PEAKS: 6
95.0289     0.003379276110502581
100.1121    0.02637848424254151
123.0241    0.5396532915381408
165.0711    1.0
246.1658    0.0023067071383029904
264.1759    0.7218880888745779


