PRECURSORMZ: 380.06860634799995
COMPOUNDNAME: Challenge-056
FORMULA: C17H14F3N3O2S
SMILES: CC1=CC=C(C=C1)C1=CC(=NN1C1=CC=C(C=C1)S(N)(=O)=O)C(F)(F)F
INCHIKEY: RZEKVGVHFLEQIL-UHFFFAOYSA-N
PRECURSORTYPE: [M-H]-
IONMODE: negative
CHARGE: -1
PARENTMASS: 381.07588234799994
NUM PEAKS: 37
87.9989     0.011112638888719325
108.0055    0.004667987134518631
115.0294    0.0010394830977266262
129.0455    0.001808994666038328
130.0534    0.010301068501546226
139.0301    0.01518153965798672
159.0364    0.03788572484620146
179.0427    0.04291885761166952
198.041     0.004646759334432926
199.0491    0.001836937226755025
220.1006    0.0021746896864939303
221.0961    0.01298236398641909
221.1084    0.004043819612228678
224.057     0.0028536282903853173
225.0523    0.006788203325393638
225.0648    0.0253849923268599
225.0836    0.0017346973657383611
229.0772    0.00453643123901984
245.0964    0.0030324469442345233
246.1038    0.01689803849633313
247.1116    0.04725664639215912
248.0868    0.003986034518753106
249.0834    0.017274637372404287
251.0994    0.0026325447966099
255.0808    0.003771673416018489
256.0882    0.01818488421921374
268.0944    0.011756637846100128
269.0899    0.007526071584231789
275.0873    0.00727773226662239
276.0943    0.10305472011046392
277.0785    0.003641361277318393
295.0925    0.005076580318914504
296.1005    0.07312766530214591
315.0981    0.004201265488205828
316.1067    0.22727059630736998
317.0906    0.0067592611809921
380.0687    1.0


