PRECURSORMZ: 282.00940795200006
COMPOUNDNAME: Challenge-052
FORMULA: C13H11Cl2NO2
SMILES: CC12CC1(C)C(=O)N(C2=O)c1cc(Cl)cc(Cl)c1
INCHIKEY: QXJKBPAVAHBARF-UHFFFAOYSA-N
PRECURSORTYPE: [M-H]-
IONMODE: negative
CHARGE: -1
PARENTMASS: 283.01668395200005
NUM PEAKS: 8
95.0486     0.017160741340807684
159.9725    0.09959787133793642
160.9564    0.02172208821285816
212.9752    0.05757173020923061
239.0042    0.021842772067922886
254.0148    0.12315133705140177
266.9856    0.016291314734945567
282.0093    1.0


