PRECURSORMZ: 218.96212341199998
COMPOUNDNAME: Challenge-037
FORMULA: C8H6Cl2O3
SMILES: OC(=O)COc1ccc(Cl)cc1Cl
INCHIKEY: OVSKIKFHRZPJSS-UHFFFAOYSA-N
PRECURSORTYPE: [M-H]-
IONMODE: negative
CHARGE: -1
PARENTMASS: 219.96939941199997
NUM PEAKS: 3
124.9795    0.03278943188567948
160.9566    1.0
218.9621    0.010660558031992128


