PRECURSORMZ: 165.05571818
COMPOUNDNAME: Challenge-028
FORMULA: C9H10O3
SMILES: CCOC(=O)c1ccc(O)cc1
INCHIKEY: NUVBSKCKDOMJSU-UHFFFAOYSA-N
PRECURSORTYPE: [M-H]-
IONMODE: negative
CHARGE: -1
PARENTMASS: 166.06299418
NUM PEAKS: 4
121.029     0.014577724823728717
136.0165    0.23776211280206686
137.0244    0.5103477380080509
165.0557    1.0


