PRECURSORMZ: 351.07215609199994
COMPOUNDNAME: Challenge-008
FORMULA: C16H16O9
SMILES: CC1=CC(=O)OC2=CC(O[C@@H]3O[C@@H]([C@H](O)[C@H](O)[C@H]3O)C(O)=O)=CC=C12
INCHIKEY: ARQXEQLMMNGFDU-SQCNAZHOSA-N
PRECURSORTYPE: [M-H]-
IONMODE: negative
CHARGE: -1
PARENTMASS: 352.07943209199993
NUM PEAKS: 10
98.0091     0.0019310268962949516
129.0189    0.01856171798635236
130.0424    0.002322386296151562
131.0501    0.01676800342985968
133.0293    0.013645974684271365
147.0452    0.00809764586903967
157.0144    0.012132397814490133
175.0249    0.17941453403038257
175.0401    1.0
351.0721    0.171836457028802


