PRECURSORMZ: 214.062932304
COMPOUNDNAME: Challenge-168
FORMULA: C10H12ClNO2
SMILES: CC(C)OC(=O)Nc1cccc(Cl)c1
INCHIKEY: CWJSHJJYOPWUGX-UHFFFAOYSA-N
PRECURSORTYPE: [M+H]+
IONMODE: positive
CHARGE: 1
PARENTMASS: 213.055656304
NUM PEAKS: 28
53.0023     0.010032970381079791
68.0246     0.06195273338332496
69.0336     0.015662603843763844
71.0492     0.012878567200292278
71.0605     0.14808077230363087
72.0445     0.23121511311236204
77.0389     0.01388806486479735
79.0543     0.02019218373125147
81.0699     0.01952706618031154
91.0544     0.06265844496319549
93.0574     0.020289430965392923
94.0652     1.0
95.0492     0.28861462393200904
95.0857     0.022076014326569596
96.0557     0.21274973691946636
99.0555     0.02990218623380644
105.0448    0.014845370206391642
106.0652    0.7735343882725189
107.0855    0.018951612363602946
109.0648    0.026224188777401528
109.1014    0.016064083250769835
111.044     0.0160953094268703
124.087     0.5366432485215521
126.0106    0.061182785098333456
134.0601    0.10480753746360477
137.0959    0.013640485897143654
154.0055    0.2650486749172172
171.0405    0.021461750833850424


