PRECURSORMZ: 221.07431000399998
COMPOUNDNAME: Challenge-126
FORMULA: C11H12N2OS
SMILES: C1CN(CCO1)C1=NC2=CC=CC=C2S1
INCHIKEY: VVUVJGRVEYHIHC-UHFFFAOYSA-N
PRECURSORTYPE: [M+H]+
IONMODE: positive
CHARGE: 1
PARENTMASS: 220.067034004
NUM PEAKS: 13
109.0106    0.007717907332264241
117.0574    0.003959616708010339
124.0216    0.002959311864532851
136.0215    0.032146194960423986
144.0684    0.0011556448156387793
150.0373    0.04319627849735475
175.0327    0.002576518248606114
176.0403    0.0014579934985797162
177.0481    0.13028519331309235
190.056     0.001300114681225465
203.0638    0.002303694227005107
219.0587    0.001383691111275249
221.0744    1.0


