PRECURSORMZ: 251.04677146199998
COMPOUNDNAME: Challenge-153
FORMULA: C12H11O4P
SMILES: OP(=O)(OC1=CC=CC=C1)OC1=CC=CC=C1
INCHIKEY: ASMQGLCHMVWBQR-UHFFFAOYSA-N
PRECURSORTYPE: [M+H]+
IONMODE: positive
CHARGE: 1
PARENTMASS: 250.039495462
NUM PEAKS: 23
50.0153     0.0029669692306267576
53.0388     0.037036707789841125
77.0386     0.06775840408812112
81.0336     0.0043942075478567676
94.0413     0.011591263115203202
95.0492     0.2129120283160388
98.9842     0.0036251127621724473
105.0447    0.045241651983745246
109.0647    0.0020929807284039903
129.01      0.002226652505771787
151.0539    0.0018834406712081495
152.0621    0.09127278823444789
153.0699    0.13326720680027418
157.0049    0.008352018669648032
168.0569    0.009533869627328868
169.0648    0.007426404723940569
171.0804    0.008027518600446214
175.0155    0.06314207837096258
179.0603    0.0021589761733894343
181.0758    0.0022013408787628567
215.0256    0.01302335697697032
233.0363    0.09358128092753523
251.0468    1.0


