PRECURSORMZ: 232.977773476
COMPOUNDNAME: Challenge-049
FORMULA: C9H8Cl2O3
SMILES: CC(Oc1ccc(Cl)cc1Cl)C(O)=O
INCHIKEY: MZHCENGPTKEIGP-UHFFFAOYSA-N
PRECURSORTYPE: [M-H]-
IONMODE: negative
CHARGE: -1
PARENTMASS: 233.985049476
NUM PEAKS: 3
124.9795    0.033481571687461825
160.9566    1.0
232.9776    0.006465095028627922


