PRECURSORMZ: 249.032219462
COMPOUNDNAME: Challenge-047
FORMULA: C12H11O4P
SMILES: OP(=O)(OC1=CC=CC=C1)OC1=CC=CC=C1
INCHIKEY: ASMQGLCHMVWBQR-UHFFFAOYSA-N
PRECURSORTYPE: [M-H]-
IONMODE: negative
CHARGE: -1
PARENTMASS: 250.039495462
NUM PEAKS: 3
154.9904    0.055490002862756724
173.0008    0.006114236735539893
249.0323    1.0


