PRECURSORMZ: 282.27914074
COMPOUNDNAME: Challenge-120
FORMULA: C18H35NO
SMILES: CC1CN(CC(C)O1)C1CCCCCCCCCCC1
INCHIKEY: JMXKCYUTURMERF-UHFFFAOYSA-N
PRECURSORTYPE: [M+H]+
IONMODE: positive
CHARGE: 1
PARENTMASS: 281.27186474
NUM PEAKS: 18
55.0544     0.03452809111453792
56.0497     0.006955979843016573
57.0701     0.007087136275390383
58.0653     0.006081304079584213
67.0543     0.0027061499886564377
69.0699     0.07728101357116743
70.0652     0.007305685429694583
71.0856     0.0043958413788831585
79.0543     0.0018326422659578536
81.0699     0.009891072053360716
83.0855     0.0464042193498782
85.1012     0.00393802399258592
97.1012     0.04967814473836792
98.0964     0.2781139295391669
109.1012    0.002313918713347459
111.1168    0.014436860661442286
116.107     0.527422446305838
282.2792    1.0


