PRECURSORMZ: 367.22677081999996
COMPOUNDNAME: Challenge-165
FORMULA: C24H30O3
SMILES: CC12CCC3C(C4CC4C4=CC(=O)CCC34C)C1C1CC1C21CCC(=O)O1
INCHIKEY: METQSPRSQINEEU-UHFFFAOYSA-N
PRECURSORTYPE: [M+H]+
IONMODE: positive
CHARGE: 1
PARENTMASS: 366.21949481999997
NUM PEAKS: 185
55.018      0.007006838819364893
55.0544     0.005815989348387537
65.0387     0.0035983952119369497
67.0543     0.03578831385281687
69.0336     0.003838255320573909
69.0699     0.008446943905321481
71.0491     0.0023892962736099814
77.0386     0.0028600020719995426
79.0542     0.03706353277317256
81.0699     0.034871285748968535
83.0491     0.05942190776741701
85.0284     0.006282515393491549
85.0648     0.0029889587539538914
91.0542     0.038619032362260865
93.0699     0.06684876600916145
95.0491     0.006676129902511375
95.0855     0.017858707944339254
97.0648     0.2786169647229869
99.044      0.004206986649904632
103.0543    0.0017376532895957717
105.0699    0.06592671313201218
107.049     0.004704507226883252
107.0855    0.0495428127777491
109.0648    0.021483657190815113
109.1011    0.004675998920048724
111.0441    0.03311192355507682
111.0804    0.005757581809099775
115.0543    0.0024547744241306324
116.062     0.0017758710420971704
117.0699    0.02565189675163493
119.0855    0.04727787571909546
121.0648    0.02377247979974857
121.1012    0.011560990911107733
123.0804    0.036144157100819176
125.0597    0.00591272190277927
128.062     0.005385487840781137
129.0698    0.02215606028472204
130.0777    0.0010672498147757984
131.0855    0.06950613594409927
133.0647    0.00556175779511343
133.1012    0.024845601151948025
135.0804    0.03489182697338771
135.1167    0.00573180303028189
136.0883    0.0020989808831880607
137.0595    0.0022320737157439873
137.096     0.005153271282644457
141.0698    0.009042572265344308
142.0777    0.007610744712912952
143.0855    0.0568800936655416
144.0933    0.0037262592106309623
145.0647    0.00439730800517372
145.1011    0.038936137241715144
147.0804    0.030893567243710403
147.1168    0.008364697906652584
149.0961    0.037795639278134896
151.0753    0.005756018216852542
151.1117    0.0018402338359618194
153.0698    0.0030174731651641763
153.091     0.012687627581453302
154.0776    0.002181406524914922
155.0855    0.022901767338868895
156.0934    0.006634269581790962
157.1012    0.04369634253710414
158.1088    0.0018830342305486683
159.0804    0.03239712382743662
159.1168    0.03736770945682916
160.0882    0.002143158250534743
161.0961    0.013131454941335205
161.1323    0.0035029306235951213
163.0753    0.0022329204798667225
163.1118    0.0033387595420113604
165.0697    0.004321193415924956
165.091     0.006635818349125644
167.0856    0.005765274194606104
167.1067    0.002108951072905083
168.0935    0.0031967595531736475
169.1011    0.02945511121126163
170.1088    0.0017913595874976802
171.0805    0.004520359139610911
171.1168    0.056908313322608234
173.0961    0.016806915281031506
173.1324    0.01129022260391043
175.1117    0.007961764632014276
177.091     0.025603814327911718
177.1272    0.004252284606229393
179.0855    0.005224725617030301
179.1065    0.0025331240869597977
180.0931    0.003148407664863492
181.1011    0.012753724890086355
182.1094    0.00426908297625642
183.0805    0.0028266965978744215
183.1169    0.0250868984050487
184.1244    0.001028698937768854
185.0961    0.010402933274638307
185.1324    0.018432149514649804
187.1117    0.01049577995783446
187.1483    0.002904873594075058
189.0906    0.0016487831711778586
189.1273    0.007312988960498062
191.1067    0.003751845265585692
193.1013    0.008499631644525805
194.1092    0.0025592290138537937
195.1169    0.023018332138038423
197.0961    0.005516886273037914
197.1325    0.037436122067981116
199.1118    0.011078170543003408
199.1481    0.005184153319594418
201.091     0.0010249089924780138
201.1274    0.013011219668228921
203.1069    0.003583538905454033
203.1431    0.001809821835945076
205.1013    0.003389037796899396
205.1222    0.002374204512633616
206.109     0.0028619389032215753
207.1168    0.006868518025000732
208.1246    0.0016290119701576253
209.0962    0.001079886744644544
209.1324    0.012213404790574565
211.1117    0.0061708035730481
211.148     0.009596453671625047
213.1273    0.01023785612928161
215.1064    0.003073365701640438
215.1429    0.007651272535611184
217.1223    0.004290575611239865
219.1164    0.0038809292673772392
219.1381    0.00836714401722341
220.1249    0.0017084368751735387
221.1324    0.013694420530794657
223.1118    0.002608765151060627
223.148     0.008309894565221942
225.1272    0.005630197439929454
225.1639    0.004820855756740278
227.143     0.006052557454384616
229.1221    0.0026560766793312118
231.1169    0.0010547454370663277
231.1379    0.011874841286230342
233.132     0.004881128618848359
235.1483    0.010134171562957393
237.1273    0.005358539637979123
237.164     0.004445278806025961
239.1431    0.019674629795772006
241.1222    0.0019786828222168582
241.1589    0.0037546742077217915
243.1379    0.002500640087400708
247.1481    0.004929072386036537
249.1641    0.003782287787481216
251.1429    0.004976956853574513
251.1788    0.0033521647511716916
253.1589    0.009393753514376327
255.1378    0.0037655321480844816
257.1534    0.01593857218999887
261.1635    0.003434095066408632
263.1432    0.0010423151839196092
263.1791    0.0019160955296435465
265.1585    0.004782533357797346
267.1744    0.0028871892175097217
269.1538    0.002936978250283592
269.1899    0.0010648385863521507
271.1695    0.001095982239405943
275.143     0.0010979007575007082
275.1791    0.0020931198104085537
276.1873    0.0021125186445076663
279.1384    0.0015585299756243555
279.1745    0.0025159681749242014
281.1534    0.0022297819586744225
283.1697    0.0038437274574123865
285.1849    0.0027988841898760847
287.1797    0.0024502711389300107
289.159     0.0010167736037025306
289.195     0.008259434051114904
291.1743    0.0018474762417695573
293.1531    0.0033152716482093597
295.1693    0.009749669142834021
303.2104    0.0010798501183900075
305.1899    0.00274754900592857
307.1694    0.001013756297971673
307.2055    0.010947838632396586
309.1849    0.0016738529703543606
313.1949    0.003967181480649478
321.1851    0.0020378411997226172
321.2209    0.005012167764989207
323.1999    0.0019732438234181995
331.2055    0.011377741911178891
349.2161    0.03313714160337882
367.2269    1.0


