PRECURSORMZ: 203.05251194
COMPOUNDNAME: Challenge-127
FORMULA: C12H10OS
SMILES: O=S(C1=CC=CC=C1)C1=CC=CC=C1
INCHIKEY: JJHHIJFTHRNPIK-UHFFFAOYSA-N
PRECURSORTYPE: [M+H]+
IONMODE: positive
CHARGE: 1
PARENTMASS: 202.04523594
NUM PEAKS: 27
53.0388     0.0022322609083900028
65.0388     0.001117199903608635
77.0388     0.007534968078737615
78.0464     0.009473572150248365
81.0335     0.0029316757387012767
94.0413     0.012939150126487338
95.0491     0.005287615502331804
97.0106     0.051060466577098396
105.0447    0.0015515130490719939
109.0106    0.06302169504617508
110.0184    0.006045407999334413
111.0263    0.0018832784270514688
125.0055    0.2769798166936479
126.0133    0.015352590336028456
141.0698    0.0010275486578689601
142.0775    0.001943647492622968
147.0262    0.004563570873551054
153.0697    0.0025164520184407365
154.0775    0.00585333793636887
155.0855    0.008647520387664087
170.0725    0.0014578625502026392
171.0264    0.0034561705911745223
175.0573    0.00103559114484277
184.0339    0.002055334572245127
185.0419    0.08496672520868759
186.0497    0.46931354853015134
203.0524    1.0


