PRECURSORMZ: 212.15058616399998
COMPOUNDNAME: Challenge-093
FORMULA: C9H17N5O
SMILES: CCNC1=NC(=O)N=C(NC(C)(C)C)N1
INCHIKEY: OYTCZOJKXCTBHG-UHFFFAOYSA-N
PRECURSORTYPE: [M+H]+
IONMODE: positive
CHARGE: 1
PARENTMASS: 211.14331016399998
NUM PEAKS: 27
56.0496     0.007653051219520742
57.0701     0.0016204243413383073
65.0387     0.003650222495979817
67.0543     0.0014375262410746793
69.0084     0.001989182507247588
70.0288     0.004798436112102989
71.0605     0.005874352794719657
85.0396     0.0069841093260117676
86.0349     0.012095820344366409
90.0338     0.003965570218785788
92.0495     0.011061128851421778
93.0572     0.009296369745139747
97.0396     0.005053940577121339
99.0553     0.26960233909146364
106.0651    0.001907026646802423
107.0604    0.0034791070157160504
110.0599    0.0045674550055276346
114.0105    0.017470201211583644
114.0662    0.006942572841047852
126.0105    0.1712681454398446
127.0183    0.010828891379416916
128.0261    1.0
133.076     0.008561356823961879
142.0054    0.003002627630510458
144.0209    0.0029945134484412606
156.088     0.1263334809158837
176.0818    0.01773063234400583


