PRECURSORMZ: 151.03244519199998
COMPOUNDNAME: Challenge-090
FORMULA: C7H6N2S
SMILES: SC1=NC2=CC=CC=C2N1
INCHIKEY: YHMYGUUIMTVXNW-UHFFFAOYSA-N
PRECURSORTYPE: [M+H]+
IONMODE: positive
CHARGE: 1
PARENTMASS: 150.025169192
NUM PEAKS: 7
65.0385     0.00127660832587643
92.0494     0.004919361624066624
93.0573     0.0497158928820336
118.0525    0.018353304473492062
119.0604    0.009803145874364356
150.0244    0.0011749858986886683
151.0324    1.0


