PRECURSORMZ: 194.04588176800002
COMPOUNDNAME: Challenge-006
FORMULA: C9H9NO4
SMILES: CC(=O)NC1=CC=C(O)C(=C1)C(O)=O
INCHIKEY: GEFDRROBUCULOD-UHFFFAOYSA-N
PRECURSORTYPE: [M-H]-
IONMODE: negative
CHARGE: -1
PARENTMASS: 195.053157768
NUM PEAKS: 5
132.0454    0.006008828855732822
134.0245    0.0022295306804225633
149.0483    0.00297960480724686
150.056     1.0
194.0459    0.36915136378467533


