PRECURSORMZ: 550.176578648
COMPOUNDNAME: Challenge-057
FORMULA: C27H29N5O6S
SMILES: COC1=CC=CC=C1OC1=C(OCCO)N=C(N=C1NS(=O)(=O)C1=CC=C(C=C1)C(C)(C)C)C1=NC=CC=N1
INCHIKEY: GJPICJJJRGTNOD-UHFFFAOYSA-N
PRECURSORTYPE: [M-H]-
IONMODE: negative
CHARGE: -1
PARENTMASS: 551.1838546480001
NUM PEAKS: 48
108.0207    0.004169163513514994
118.0291    0.014317629071331465
119.0356    0.0018780325776743525
132.0327    0.004133728207206085
134.0246    0.009892493790606846
147.0563    0.003908746226059343
149.0972    0.037996866616932676
158.0361    0.006303464226415372
173.0343    0.012011422023352125
173.0467    0.0010103185679136652
173.1084    0.0061732426971216154
175.0262    0.0020053935113315347
177.0925    0.0016555246251862689
181.0332    0.0031914583129714546
185.034     0.0020287421567976222
197.0641    0.7909229305926079
200.0577    0.00674072302070137
201.0418    0.02000196762591759
202.0371    0.007386947037682485
203.0459    0.0017679125312321958
212.0748    0.0019150012663289918
246.076     0.007968936508499997
248.0574    0.004261733419159792
249.0658    0.007956540594074843
250.0736    0.0028207921234143425
262.0735    0.001624676580348623
265.0608    0.005828850176496818
276.0528    0.0026467467843909152
277.0604    0.0286857953322424
278.0682    0.031687346174529965
280.084     0.006782085687338314
293.0556    0.0056733471668473975
294.0637    0.0024054259056442836
306.1359    0.0018804421785033583
308.0789    0.03871607447934421
318.1354    0.0018145196232028581
322.0948    0.007666280335924126
334.131     0.003285819312280595
338.09      0.004899646246115727
370.0987    0.002153745031889521
396.1139    0.0018197382774047155
398.0926    0.0017191406641852073
413.1862    0.002150974635214461
440.1728    0.00241791201903095
458.0945    0.003038996296881635
474.1247    0.010814443147369061
506.1509    0.0069524199833737544
550.1766    1.0


