PRECURSORMZ: 267.171971974
COMPOUNDNAME: Challenge-198
FORMULA: C12H27O4P
SMILES: CC(C)COP(=O)(OCC(C)C)OCC(C)C
INCHIKEY: HRKAMJBPFPHCSD-UHFFFAOYSA-N
PRECURSORTYPE: [M+H]+
IONMODE: positive
CHARGE: 1
PARENTMASS: 266.164695974
NUM PEAKS: 8
57.0701     0.022005452452660737
80.9738     0.0014757514242416875
98.9842     1.0
116.9948    0.004246808192863608
131.0104    0.005336761327315552
155.0468    0.03956343807367111
211.1095    0.01636668702744755
267.1721    0.0013229982706743262


