PRECURSORMZ: 345.11530222400006
COMPOUNDNAME: Challenge-132
FORMULA: C22H17ClN2
SMILES: Clc1ccccc1C(c1ccccc1)(c1ccccc1)n1ccnc1
INCHIKEY: VNFPBHJOKIVQEB-UHFFFAOYSA-N
PRECURSORTYPE: [M+H]+
IONMODE: positive
CHARGE: 1
PARENTMASS: 344.10802622400007
NUM PEAKS: 10
77.0024     0.016686186675131418
165.07      0.5883186887662352
199.0309    0.08278057047680813
231.0918    0.17379557443097807
232.0992    0.1402514888567204
233.1074    0.07377970302222636
241.1014    0.09948500015050472
242.1094    0.1277561750269768
277.0782    1.0
345.1154    0.2983808882698431


