PRECURSORMZ: 119.060374192
COMPOUNDNAME: Challenge-085
FORMULA: C7H6N2
SMILES: N1C=NC2=CC=CC=C12
INCHIKEY: HYZJCKYKOHLVJF-UHFFFAOYSA-N
PRECURSORTYPE: [M+H]+
IONMODE: positive
CHARGE: 1
PARENTMASS: 118.053098192
NUM PEAKS: 4
59.0493     0.023261681454026507
65.0386     0.001206517207184873
92.0494     0.003800894855867966
119.0603    1.0


