PRECURSORMZ: 775.679423832
COMPOUNDNAME: Challenge-048
FORMULA: C15H11I4NO4
SMILES: NC(CC1=CC(I)=C(OC2=CC(I)=C(O)C(I)=C2)C(I)=C1)C(O)=O
INCHIKEY: XUIIKFGFIJCVMT-UHFFFAOYSA-N
PRECURSORTYPE: [M-H]-
IONMODE: negative
CHARGE: -1
PARENTMASS: 776.686699832
NUM PEAKS: 4
126.9047    1.0
483.7629    0.02043643277997498
603.7798    0.023102174659218336
775.6789    0.02335930874773329


