PRECURSORMZ: 439.15241250000014
COMPOUNDNAME: Challenge-050
FORMULA: C24H20N6O3
SMILES: CCOC1=Nc2cccc(C(O)=O)c2N1Cc1ccc(-c2ccccc2C2NN=NN=2)cc1
INCHIKEY: HTQMVQVXFRQIKW-UHFFFAOYSA-N
PRECURSORTYPE: [M-H]-
IONMODE: negative
CHARGE: -1
PARENTMASS: 440.15968850000013
NUM PEAKS: 44
132.0327    0.41249821049309726
133.0406    0.35262341279176757
145.0406    0.014649323293745199
147.0199    0.08381906652741837
161.072     0.06765989276634138
165.071     0.013115133801452761
176.0227    0.05075406834765198
177.0305    0.02404335600878767
178.0661    0.006410407547105794
190.0661    0.031347175418069494
193.0771    0.0017444468160279579
195.0817    0.005222815464317103
205.0618    0.036799567090799276
206.0849    0.017572256696737308
266.0976    0.004617836627670563
281.1084    0.04827657718526274
291.093     0.0015951582304940283
292.1007    0.03750401394837322
293.1084    0.13623905977273307
295.0873    0.002136467839683032
297.1033    0.0015136934712729397
305.0955    0.0022958659490982013
306.1037    0.055992498179333605
307.0876    0.007943281416427387
308.096     0.00535725135894332
309.1032    0.7657404161627053
310.1112    0.039351633302641235
311.1192    0.030541667943340272
321.1154    0.0018685654568301694
322.0984    0.00187206224420005
323.1063    0.008088346159791758
324.1141    0.0548414665664716
337.1123    0.0012427097609357266
339.1247    0.00824473218503683
339.1471    0.0016430746039585364
352.1456    0.008990794274478074
354.101     0.06303371231930308
367.1564    0.013853579126325944
368.104     0.007248009297992239
395.1633    0.007698367813907208
396.1351    0.025790918773957106
411.122     0.003179964585506924
411.146     0.046362553492624116
439.1524    1.0


