PRECURSORMZ: 669.4219368039999
COMPOUNDNAME: Challenge-079
FORMULA: C36H62O11
SMILES: CC[C@]1(CC[C@@H](O1)[C@@]1(C)CC[C@]2(C[C@H](O)[C@@H](C)[C@H](O2)[C@H](C)[C@H](OC)[C@@H](C)C(O)=O)O1)[C@H]1O[C@@H](C[C@H]1C)[C@H]1O[C@@](O)(CO)[C@H](C)C[C@@H]1C
INCHIKEY: GAOZTHIDHYLHMS-GDMSFIFLSA-N
PRECURSORTYPE: [M-H]-
IONMODE: negative
CHARGE: -1
PARENTMASS: 670.4292128039999
NUM PEAKS: 9
135.0817    0.007795001299522474
137.097     0.04944818784500382
153.0922    0.0186270060165951
194.304     0.007865990139145884
276.2417    0.007334737593439545
318.0174    0.008081478119532793
507.1531    0.008384053501534212
637.3938    0.052836256289106896
669.4219    1.0


