PRECURSORMZ: 278.105465812
COMPOUNDNAME: Challenge-139
FORMULA: C14H16ClN3O
SMILES: Cc1cccc(C)c1N(Cn1cccn1)C(=O)CCl
INCHIKEY: STEPQTYSZVCJPV-UHFFFAOYSA-N
PRECURSORTYPE: [M+H]+
IONMODE: positive
CHARGE: 1
PARENTMASS: 277.098189812
NUM PEAKS: 9
76.9788     0.012508859149733476
77.0388     0.0012137299948459708
105.0698    0.009274367995869514
123.0803    0.0011656179039413646
132.0809    0.0018592566425086048
134.0964    1.0
210.068     0.47393241533304015
242.0943    0.0031207453912598195
278.1055    0.016843005410368768


