PRECURSORMZ: 232.133204784
COMPOUNDNAME: Challenge-163
FORMULA: C14H17NO2
SMILES: CCN(CC)C1=CC=C2C(C)=CC(=O)OC2=C1
INCHIKEY: AFYCEAFSNDLKSX-UHFFFAOYSA-N
PRECURSORTYPE: [M+H]+
IONMODE: positive
CHARGE: 1
PARENTMASS: 231.125928784
NUM PEAKS: 36
67.018      0.0013971941076237819
68.0132     0.0047775256016875595
91.0543     0.0015078062198888862
96.0444     0.004601438805483319
105.0699    0.001966636429300932
117.0699    0.0011480608465066207
118.0653    0.0019112405578320534
130.065     0.0024457215984133233
131.0729    0.0017230933025664517
132.0808    0.004329731678005586
144.0809    0.008354619800123697
147.0679    0.0016640467509852117
148.0758    0.001136170827711404
148.1121    0.00442283369864735
158.0965    0.002777636192912537
159.1044    0.0016740450777742329
160.0757    0.022158498976021616
160.1123    0.0035332601368512797
161.12      0.0014024369560393336
162.0912    0.0012258374465508237
172.1121    0.0014011523878569888
173.1197    0.001079787544537267
174.0913    0.003982336122241095
175.0628    0.00488323727780382
175.0992    0.04574278647778172
176.0706    0.00774804043823423
176.1071    0.012069973917069337
176.1434    0.010515321270989775
188.0706    0.21205309002632577
189.1149    0.001482937536873025
202.0864    0.012976292817268429
203.0941    0.3548953118009721
204.102     0.15539437872406411
216.1021    0.0017692493342803721
217.1107    0.002062401857598383
232.1333    1.0


