PRECURSORMZ: 196.060433768
COMPOUNDNAME: Challenge-091
FORMULA: C9H9NO4
SMILES: CC(=O)NC1=CC=C(O)C(=C1)C(O)=O
INCHIKEY: GEFDRROBUCULOD-UHFFFAOYSA-N
PRECURSORTYPE: [M+H]+
IONMODE: positive
CHARGE: 1
PARENTMASS: 195.053157768
NUM PEAKS: 18
65.0386     0.002486155272598123
73.0284     0.005707733363544392
80.0494     0.019915574152527055
81.0335     0.004886784964610043
92.0495     0.004550844939882639
93.0335     0.0016817147209350195
108.0443    0.17795010221711174
109.0283    0.003050337320616405
110.06      0.03927609119773853
122.0599    0.00471606561946319
134.0599    0.00433843528123956
136.0392    0.681247334361884
137.0232    0.002703708079637268
150.055     0.011246714576950565
152.0705    0.05744914534264804
154.0498    0.02974665490931883
178.0498    1.0
196.0604    0.5860879494966529


