PRECURSORMZ: 294.171321608
COMPOUNDNAME: Challenge-124
FORMULA: C17H19N5
SMILES: CC(C)(C#N)c1cc(Cn2cncn2)cc(c1)C(C)(C)C#N
INCHIKEY: YBBLVLTVTVSKRW-UHFFFAOYSA-N
PRECURSORTYPE: [M+H]+
IONMODE: positive
CHARGE: 1
PARENTMASS: 293.16404560800004
NUM PEAKS: 21
115.0543    0.0012955011817848553
129.0698    0.002823167576754653
130.0777    0.010362583545580712
131.0855    0.004969769701395671
142.0651    0.006948870214919302
156.081     0.0017869919585127016
156.0934    0.0012885883902057024
157.0887    0.014333736037988104
158.0964    0.002199438527227384
168.0807    0.0019813339631405574
170.0962    0.0018439572049162747
171.1168    0.00227959579724335
183.1041    0.0021076770579572723
195.0916    0.003182773649158996
198.1277    0.012290060691569425
209.1071    0.0062349165662856825
210.1151    0.03482587004648195
225.1386    1.0
261.1595    0.0010517397413345602
267.1598    0.0022552196101064893
294.1714    0.4648010064045493


