PRECURSORMZ: 472.15880334400003
COMPOUNDNAME: Challenge-025
FORMULA: C28H27NO4S
SMILES: Oc1ccc(cc1)-c1sc2cc(O)ccc2c1C(=O)c1ccc(OCCN2CCCCC2)cc1
INCHIKEY: GZUITABIAKMVPG-UHFFFAOYSA-N
PRECURSORTYPE: [M-H]-
IONMODE: negative
CHARGE: -1
PARENTMASS: 473.166079344
NUM PEAKS: 28
93.0331     0.012713036752846171
181.0656    0.0014685817433810892
211.0221    0.01583997573906224
212.03      0.020109674391153395
229.0326    0.0018962281560081491
238.0094    0.001444494549318069
239.0172    0.14579117745312278
240.025     0.10222273467837278
241.0329    0.07267319679711395
253.0329    0.0020211919923110518
266.0043    0.005708480719319956
266.0413    0.0011799829362631785
267.0123    0.04233178253923251
303.0485    0.0033283763730687795
305.0269    0.0010734464615385424
315.0487    0.0017601289283515223
316.0559    0.0044760324521632274
331.0427    0.011489960115292104
332.0511    0.020329249566759567
343.0432    0.01487856763591956
350.1218    0.00345902636665869
359.0387    0.014976574874713685
360.0462    0.3547819924663681
361.054     0.21104662412052125
374.0615    0.0017428861828747157
378.1174    0.0014953277424718306
387.0697    0.003951458117634485
472.1588    1.0


