PRECURSORMZ: 147.06652219199998
COMPOUNDNAME: Challenge-095
FORMULA: C7H6N4
SMILES: N1N=NN=C1C1=CC=CC=C1
INCHIKEY: MARUHZGHZWCEQU-UHFFFAOYSA-N
PRECURSORTYPE: [M+H]+
IONMODE: positive
CHARGE: 1
PARENTMASS: 146.059246192
NUM PEAKS: 10
65.0386     0.0013557162237710274
66.0464     0.0016866689036573073
77.0384     0.0033206698294523415
90.0464     0.002382215363842407
91.0542     0.00883821275419567
92.0492     0.0010717288485623693
95.0489     0.0019304249436578045
104.0494    1.0
119.0603    0.018198829180467294
147.0664    0.14803560336617982


