PRECURSORMZ: 557.2457244399999
COMPOUNDNAME: Challenge-063
FORMULA: C33H35FN2O5
SMILES: CC(C)c1c(C(=O)Nc2ccccc2)c(c(-c2ccc(F)cc2)n1CC[C@@H](O)C[C@@H](O)CC(O)=O)-c1ccccc1
INCHIKEY: XUKUURHRXDUEBC-KAYWLYCHSA-N
PRECURSORTYPE: [M-H]-
IONMODE: negative
CHARGE: -1
PARENTMASS: 558.2530004399999
NUM PEAKS: 18
85.0279     0.1620302915906967
92.0491     0.019069133504760527
262.1037    0.014945471847424441
276.1196    0.006231045763258356
278.135     0.9041800582209896
295.102     0.001149636969831185
342.1663    0.0011634444703255396
360.1772    0.0016158409131156336
395.1557    0.0010989202228630025
397.1721    0.5997429357040927
451.2198    0.001172126749029746
453.1985    0.13341172245317592
477.2343    0.003342849416776534
479.2137    0.024715445008856307
495.2443    0.0019495158004085645
521.2244    0.013336037461546492
539.2356    0.006924289382261608
557.2457    1.0


