PRECURSORMZ: 223.00705373600002
COMPOUNDNAME: Challenge-003
FORMULA: C10H8O4S
SMILES: OC1=CC=CC2=C(C=CC=C12)S(O)(=O)=O
INCHIKEY: YLKCHWCYYNKADS-UHFFFAOYSA-N
PRECURSORTYPE: [M-H]-
IONMODE: negative
CHARGE: -1
PARENTMASS: 224.014329736
NUM PEAKS: 5
143.0502    0.03378827779805972
158.0374    0.007272211098529482
159.0451    0.10997621629505136
221.9993    0.0017234417551551231
223.007     1.0


