PRECURSORMZ: 255.06628286400002
COMPOUNDNAME: Challenge-041
FORMULA: C15H12O4
SMILES: OC(=O)C1=CC=CC=C1C(=O)OCC1=CC=CC=C1
INCHIKEY: XIKIUQUXDNHBFR-UHFFFAOYSA-N
PRECURSORTYPE: [M-H]-
IONMODE: negative
CHARGE: -1
PARENTMASS: 256.073558864
NUM PEAKS: 17
123.0446    0.06063796830797262
133.0293    0.011374606768276285
137.0608    0.010744018395635414
147.0087    0.19158295443411114
149.0244    0.1078646344743047
151.04      0.08208456071664592
165.0192    0.030791174931568816
179.0349    0.060379045153112806
180.0579    0.0030021743707771237
181.0661    0.024607706403657444
183.0815    0.9573450578407644
190.9984    0.018368617346183592
197.0609    0.022770477756999995
211.0764    0.23104517812954078
227.0718    0.004418371452575577
237.0556    0.020787068018403975
255.0663    1.0


