PRECURSORMZ: 297.05559442799995
COMPOUNDNAME: Challenge-114
FORMULA: C14H14Cl2N2O
SMILES: ClC1=CC=C(C(CN2C=CN=C2)OCC=C)C(Cl)=C1
INCHIKEY: PZBPKYOVPCNPJY-UHFFFAOYSA-N
PRECURSORTYPE: [M+H]+
IONMODE: positive
CHARGE: 1
PARENTMASS: 296.04831842799996
NUM PEAKS: 29
53.0024     0.005240390308957058
67.0417     0.001832839201612974
69.0448     0.1594109298570154
81.0448     0.03661470281970841
82.0526     0.003567276490040567
82.0652     0.00771419454226489
109.0761    0.05568652420984987
129.07      0.0020870723609272223
137.0153    0.0020289597682460457
138.0227    0.0010658771192109942
141.0699    0.007137130237426019
149.0154    0.002320202359176011
150.0232    0.004116180242772638
158.9764    0.24619674948845519
163.031     0.0015869500441160595
164.0385    0.006650500787011902
172.992     0.05378978629927735
175.0308    0.003622020002810203
176.0388    0.0628915324480332
182.9763    0.0028663545083099885
184.9921    0.011949270454560717
186.9713    0.0052186918684390925
199.0076    0.007799944648293241
200.9869    0.07935581997496646
203.0371    0.0028491402372813764
211.0075    0.008107275927612468
229.0183    0.0030484119510094778
255.0087    0.07064635289593
297.0558    1.0


