PRECURSORMZ: 309.02478564800003
COMPOUNDNAME: Challenge-055
FORMULA: C14H9ClF2N2O2
SMILES: FC1=CC=CC(F)=C1C(=O)NC(=O)NC1=CC=C(Cl)C=C1
INCHIKEY: QQQYTWIFVNKMRW-UHFFFAOYSA-N
PRECURSORTYPE: [M-H]-
IONMODE: negative
CHARGE: -1
PARENTMASS: 310.032061648
NUM PEAKS: 6
126.0112    0.19163801515062648
151.0068    0.375358699362198
156.0266    0.7684394944351032
246.0128    0.00802652004879741
289.0186    1.0
309.0249    0.44197062465211906


