PRECURSORMZ: 321.13326435999994
COMPOUNDNAME: Challenge-148
FORMULA: C17H20O6
SMILES: COc1c(C)c2COC(=O)c2c(O)c1C\C=C(/C)CCC(O)=O
INCHIKEY: HPNSFSBZBAHARI-RUDMXATFSA-N
PRECURSORTYPE: [M+H]+
IONMODE: positive
CHARGE: 1
PARENTMASS: 320.12598835999995
NUM PEAKS: 34
55.0181     0.002404245812040306
79.0543     0.002137937666750561
81.0699     0.016392289480056645
91.0542     0.010691098904335915
95.0491     0.001537527350449195
103.0542    0.009622644482497661
109.0648    0.005143430390697187
127.0753    0.0018007869305247692
131.0492    0.003489429438548506
135.0804    0.0086129683473376
149.0596    0.0022668952242249495
159.044     0.13906661055429523
161.0598    0.0017039313603900085
175.0752    0.003534361932593245
177.0546    0.13671732013898424
179.0702    0.006248543403121471
191.0702    0.005502064577166712
193.0495    0.003153323769971622
195.0652    0.05109031420473276
207.0652    1.0
215.1068    0.006838703392690287
219.0654    0.004609834010768204
221.081     0.003160679854951108
223.0602    0.009822753277830314
239.0913    0.006419401134001281
239.1063    0.0029981447612545662
241.1223    0.0027042127164264708
259.0961    0.005227263226657737
261.1121    0.005194920278124449
270.0879    0.0030057390999985705
275.1277    0.10274803245709374
285.1121    0.033994964939875576
303.1227    0.15027792572373913
321.1333    0.4707214280670732


