PRECURSORMZ: 114.066187844
COMPOUNDNAME: Challenge-084
FORMULA: C4H7N3O
SMILES: CN1CC(=O)N=C1N
INCHIKEY: DDRJAANPRJIHGJ-UHFFFAOYSA-N
PRECURSORTYPE: [M+H]+
IONMODE: positive
CHARGE: 1
PARENTMASS: 113.058911844
NUM PEAKS: 6
57.0575     0.0023613472519679254
58.0653     0.0700555386224804
70.0653     0.0022024010080261597
72.0445     0.011423141772573928
86.0713     0.07120729921885742
114.0662    1.0


