PRECURSORMZ: 372.232190548
COMPOUNDNAME: Challenge-150
FORMULA: C26H29NO
SMILES: CC\C(=C(/c1ccccc1)c1ccc(OCCN(C)C)cc1)c1ccccc1
INCHIKEY: NKANXQFJJICGDU-QPLCGJKRSA-N
PRECURSORTYPE: [M+H]+
IONMODE: positive
CHARGE: 1
PARENTMASS: 371.224914548
NUM PEAKS: 34
56.0497     0.009486097084222845
57.0574     0.010082149789402148
58.0653     0.01827394710983461
70.0652     0.057828820480250315
72.0808     1.0
91.0542     0.024434933565769822
105.0698    0.006789292806992122
107.0491    0.004856873345310449
115.0544    0.001425705677883724
128.0618    0.0025249109093783985
129.0699    0.04088694938560394
167.0856    0.0029166150981241087
178.0777    0.006230906792997484
179.0854    0.0022905390406533356
191.0852    0.002507439358697275
192.0937    0.00123806757145418
193.1014    0.0031393675281586268
194.0729    0.001648608133838316
205.1012    0.0017107546507484671
206.109     0.0019220844650885004
207.0806    0.002637576246200628
207.1168    0.0035339293665856103
209.0962    0.004450221344663878
215.0853    0.0015669034672118765
221.0958    0.0017501021827918011
249.1275    0.0022618689496886287
253.1012    0.002193100371249462
254.1089    0.0012755060580741803
283.1121    0.001336789306570838
285.1273    0.0029181472894472924
298.1358    0.0013656028168095977
300.1511    0.002235932909069207
327.1743    0.0037149963377158886
372.2322    0.7498179428577972


