PRECURSORMZ: 347.91581318400006
COMPOUNDNAME: Challenge-077
FORMULA: C13H7Cl4NO2
SMILES: OC1=C(Cl)C(Cl)=C(Cl)C(Cl)=C1C(=O)NC1=CC=CC=C1
INCHIKEY: BDOBMVIEWHZYDL-UHFFFAOYSA-N
PRECURSORTYPE: [M-H]-
IONMODE: negative
CHARGE: -1
PARENTMASS: 348.92308918400005
NUM PEAKS: 7
123.9953    0.0018925953680019206
124.9795    0.11825722110072544
158.9409    0.004698046798156399
159.9726    0.05673402352104722
160.9566    0.3037442205587836
185.9518    0.006652824966472786
347.9156    1.0


