PRECURSORMZ: 276.030917464
COMPOUNDNAME: Challenge-005
FORMULA: C9H7N7O2S
SMILES: CN1C=NC(=C1SC1=C2NC=NC2=NC=N1)[N+]([O-])=O
INCHIKEY: LMEKQMALGUDUQG-UHFFFAOYSA-N
PRECURSORTYPE: [M-H]-
IONMODE: negative
CHARGE: -1
PARENTMASS: 277.038193464
NUM PEAKS: 7
134.0232    0.027474922397905166
138.9843    0.0048337466286196215
144.0315    0.007347779374895422
158.003     0.3270327647905985
229.0299    0.011054199735913223
230.0374    0.008961508426569186
276.0309    1.0


