PRECURSORMZ: 199.016745828
COMPOUNDNAME: Challenge-040
FORMULA: C9H9ClO3
SMILES: Cc1cc(Cl)ccc1OCC(O)=O
INCHIKEY: WHKUVVPPKQRRBV-UHFFFAOYSA-N
PRECURSORTYPE: [M-H]-
IONMODE: negative
CHARGE: -1
PARENTMASS: 200.024021828
NUM PEAKS: 5
125.016     0.005557934531773861
140.0034    0.002223722702775418
141.0112    1.0
155.027     0.00874522661674856
199.0168    0.03155118623901036


