PRECURSORMZ: 399.09689591599994
COMPOUNDNAME: Challenge-138
FORMULA: C15H18N4O7S
SMILES: CCCOC1=NN(C(=O)NS(=O)(=O)C2=CC=CC=C2C(=O)OC)C(=O)N1C
INCHIKEY: JTHMVYBOQLDDIY-UHFFFAOYSA-N
PRECURSORTYPE: [M+H]+
IONMODE: positive
CHARGE: 1
PARENTMASS: 398.08961991599995
NUM PEAKS: 57
53.0388     0.0158674228401954
58.0289     0.03603621642399486
59.0241     0.003957203902058722
71.0605     0.004735706774896479
77.0386     0.028164013089084974
78.9848     0.008735353404733665
79.0542     0.04172523311498882
81.0335     0.00608140519859646
84.0445     0.0010152805032170513
90.0338     0.05651630651002769
92.0256     0.014192806123488203
94.0414     0.004178896494683844
95.0491     0.06765670733382305
97.0105     0.001012902589244653
99.0553     0.0176544368697944
100.0755    0.0010861881226140273
104.0257    0.0017920641769549209
105.0335    0.011186496849661083
105.0448    0.02314578303819481
107.0492    0.009266399057131416
114.0298    0.04968758228096235
116.0455    0.9752668916450474
118.0288    0.0020562508864620356
120.0206    0.019736896199056348
120.0443    0.004065789077815997
121.0284    0.0012730108726262206
128.0455    0.006675570685338166
130.04      0.009872500831101956
130.0611    0.005410473734655447
133.0395    0.0017339384291266712
135.044     0.45692387816185476
138.0311    0.014004787408884785
141.0002    0.001461365952270922
146.0236    0.06757739526013071
151.9926    0.0013110668396579615
156.0768    0.021550333571342745
158.0924    0.6556534834617719
168.9954    0.05652815403425953
172.1082    0.007494913880271611
173.0666    0.0017577035536406002
174.0515    0.001770060297171039
178.0496    0.001059465788778825
184.0063    0.0015633079184628714
199.006     1.0
209.9856    0.2660694661083256
215.1139    0.013190634513407792
217.0162    0.0014795997405504314
224.9967    0.008033948202399816
227.9962    0.0043408282316411495
231.0324    0.013161805226327889
242.0115    0.003764275192199919
268.0023    0.0014626460081224684
282.018     0.023419490747064887
324.0647    0.0033432162365647864
325.0238    0.07917974207902373
367.0709    0.2778951733298401
399.097     0.005287938753158327


