PRECURSORMZ: 301.073831336
COMPOUNDNAME: Challenge-142
FORMULA: C16H13ClN2O2
SMILES: CN1c2ccc(Cl)cc2C(=NC(O)C1=O)c1ccccc1
INCHIKEY: SEQDDYPDSLOBDC-UHFFFAOYSA-N
PRECURSORTYPE: [M+H]+
IONMODE: positive
CHARGE: 1
PARENTMASS: 300.066555336
NUM PEAKS: 28
58.0289     0.0011524838964361366
95.0491     0.0010731790076065123
104.0494    0.006735438773008779
117.0574    0.00432726455595155
125.0152    0.005736418994819741
138.0105    0.0024057459007579577
150.0106    0.0016092223770059022
152.0261    0.0050633818264204855
165.0698    0.0011563064865025038
166.0057    0.0018906874915256217
170.0366    0.0013615593692503306
177.0214    0.020622427941967458
180.021     0.024967837348729538
181.0883    0.001153831869791344
193.0886    0.045152182719272016
205.0758    0.0020256226759999317
216.0575    0.013695669553343014
219.0916    0.001360669138603566
221.0834    0.0018205644654384543
228.0573    0.03410321377612915
239.0369    0.0050173714936277165
245.0842    0.004064159308549088
255.0683    1.0
257.0472    0.0035885576192631265
271.0632    0.0014315855853853678
273.079     0.001371436439692507
283.0633    0.2113697985275459
301.0739    0.41257483268995404


