PRECURSORMZ: 426.96790588000005
COMPOUNDNAME: Challenge-078
FORMULA: C8H5F13O3S
SMILES: [H]C([H])(C([H])([H])S(O)(=O)=O)C(F)(F)C(F)(F)C(F)(F)C(F)(F)C(F)(F)C(F)(F)F
INCHIKEY: VIONGDJUYAYOPU-UHFFFAOYSA-N
PRECURSORTYPE: [M-H]-
IONMODE: negative
CHARGE: -1
PARENTMASS: 427.97518188000004
NUM PEAKS: 2
406.9618    0.2882840861117659
426.968     1.0


