PRECURSORMZ: 302.138684088
COMPOUNDNAME: Challenge-187
FORMULA: C17H19NO4
SMILES: CCOC(=O)NCCOC1=CC=C(OC2=CC=CC=C2)C=C1
INCHIKEY: HJUFTIJOISQSKQ-UHFFFAOYSA-N
PRECURSORTYPE: [M+H]+
IONMODE: positive
CHARGE: 1
PARENTMASS: 301.131408088
NUM PEAKS: 29
66.0465     0.002479966740373955
70.0288     0.02037206582438007
88.0393     1.0
91.0543     0.0012848842259244313
94.0414     0.008469640134500044
107.0492    0.0032877694832594497
116.0707    0.49470192137882096
118.0414    0.00293011712503754
119.0493    0.002224239494948556
120.057     0.005559561076782397
129.0699    0.0033264193353908125
134.0362    0.0020978812813722057
141.0698    0.0027186907752214024
163.0629    0.006648804214360325
167.0855    0.002191601263333738
169.0648    0.002305441444051745
177.07      0.0010260279730858889
183.0808    0.005550871170151016
185.0598    0.0036103777597364614
186.0675    0.0065481491340221585
187.0756    0.002732372670632266
195.0805    0.0030105959168576653
211.0752    0.007368523996321793
213.0546    0.009843344501071955
213.091     0.0033178556307229584
230.1178    0.001142686664322649
238.0863    0.0022828532957863126
256.0969    0.11453547340880559
302.1389    0.07392606536091839


