PRECURSORMZ: 341.21112075599996
COMPOUNDNAME: Challenge-167
FORMULA: C22H28O3
SMILES: CC12CCC3C(C=CC4=CC(=O)CCC34C)C1CCC21CCC(=O)O1
INCHIKEY: UJVLDDZCTMKXJK-UHFFFAOYSA-N
PRECURSORTYPE: [M+H]+
IONMODE: positive
CHARGE: 1
PARENTMASS: 340.20384475599997
NUM PEAKS: 117
67.0543     0.005270005325596264
69.0699     0.0022207742331977203
71.0492     0.007492634528472621
79.0542     0.022840539315579663
81.0699     0.008516528509208377
83.0491     0.026855929689513166
85.0647     0.001767842285076629
91.0542     0.023676462378455134
93.0699     0.019331006663855364
95.0491     0.002141980404265902
95.0854     0.0057064958554339535
97.0648     0.07369164218080407
99.044      0.03938040306736682
105.0699    0.03881099735628381
107.0855    0.2597593877630193
109.0647    0.009632120284355616
109.101     0.002114674304384399
111.044     0.005782396838453548
111.0805    0.002238504865264149
113.0596    0.004001902911084147
117.0699    0.005740100178613276
119.0855    0.026035159816775517
121.0648    0.006869181387884765
121.1011    0.01638231059123423
123.0804    0.007349069534593036
125.0596    0.002545488548154461
129.0699    0.005590783004582504
131.0855    0.018420239221305413
133.0647    0.005928785683623942
133.1011    0.014163569728093378
135.0804    0.011294579199044199
135.1168    0.003124985215438268
137.096     0.005485375978895689
141.0697    0.004428314312370428
142.0778    0.0023667796654005297
143.0855    0.04682133696910019
145.0648    0.0035187769453565755
145.1011    0.036691487514575606
147.0804    0.01406361919132311
147.1167    0.005577585319143098
149.0961    0.012948888863306121
153.0908    0.0032118918262111435
154.0779    0.0025086858314537887
155.0855    0.00985661794043091
157.1011    0.016503660302655352
159.0805    0.012851669527906472
159.1168    0.013800704344406011
161.096     0.02091792238191827
163.1117    0.01125451895057525
165.0909    0.006466677608556532
167.0855    0.0021010242113559943
167.1069    0.003170607416030786
169.1011    0.051936844610234796
170.1089    0.0017678905813116202
171.0801    0.004487344139178947
171.1168    0.008427592470928428
173.0961    0.05111012148730641
175.1117    0.022624678800468187
177.1271    0.0035850827478121215
179.1067    0.009777179504607578
181.101     0.007556370774099151
181.1222    0.0010309580443312915
183.1168    0.011427177005031009
185.0959    0.0016966378645005562
185.1325    0.012796921310175532
186.1405    0.0010342195186493644
187.1117    0.1022195234592752
189.1274    0.0029229620644704666
193.1014    0.002485184292124646
195.1169    0.005776260259697331
197.1323    0.0038133130129060157
199.1116    0.005718896160177282
199.1481    0.002655557638974092
201.1275    0.0020723618743449454
205.1223    0.03505667474468836
207.117     0.003340365725112181
209.1324    0.006620189655569388
210.1404    0.002944688470754323
211.1119    0.0026354121951581073
211.1481    0.002267578213091347
213.1273    0.004374468938542588
217.1228    0.001017203473733314
221.1322    0.005426374735573185
223.1481    0.007270523100660866
225.1273    0.002935541755229477
225.1637    0.0027612583846206495
227.1431    0.004609445891973505
235.1481    0.003064721370543854
237.164     0.002252053437635328
239.143     0.00211056518186036
241.1584    0.005354020076094365
243.1747    0.001124181605513514
245.1534    0.002089607572786566
247.148     0.004801897517676027
249.1271    0.0021040254773875846
249.1639    0.0021253595999668196
253.1586    0.00290462230846068
257.1534    0.002097945079965949
259.1688    0.0037426644918510652
261.1633    0.0038672254100803743
263.143     0.0019652171698358984
263.1792    0.006115462459513956
265.1585    0.00778542601773769
267.1745    0.001098448583000293
268.1816    0.0032935844148798766
271.1692    0.001893514016710734
277.1589    0.0017199866300251344
277.1953    0.002134466889993714
279.1741    0.004208272723201148
281.1902    0.005821521716983589
283.1692    0.025928232938142656
287.1793    0.003650682833854328
295.2055    0.004268354225167535
297.1851    0.00175444155832277
305.1901    0.01112346268155836
323.2005    0.023609200507674254
341.2112    1.0


