PRECURSORMZ: 194.11755472
COMPOUNDNAME: Challenge-157
FORMULA: C11H15NO2
SMILES: CCOC(=O)C1=CC=C(C=C1)N(C)C
INCHIKEY: FZUGPQWGEGAKET-UHFFFAOYSA-N
PRECURSORTYPE: [M+H]+
IONMODE: positive
CHARGE: 1
PARENTMASS: 193.11027872
NUM PEAKS: 13
107.073     0.01673532422169291
121.0886    0.010946352109603496
122.0964    0.008197436209638757
134.06      0.07327476846743324
135.0678    0.004245315127809021
148.0757    0.002275663270094693
150.0549    0.007162356267169938
151.0628    0.2806745708625365
164.0705    0.006400590975620273
166.0863    0.41911207165523906
178.0859    0.004198871952534239
179.0941    0.25938341691589234
194.1175    1.0


