PRECURSORMZ: 213.96380902
COMPOUNDNAME: Challenge-010
FORMULA: C7H5NO3S2
SMILES: OS(=O)(=O)C1=NC2=CC=CC=C2S1
INCHIKEY: ZCXGMSGCBDSEOY-UHFFFAOYSA-N
PRECURSORTYPE: [M-H]-
IONMODE: negative
CHARGE: -1
PARENTMASS: 214.97108502
NUM PEAKS: 3
134.0069    0.8812681793074997
150.0019    0.16031273574719937
213.9638    1.0


