PRECURSORMZ: 204.101904656
COMPOUNDNAME: Challenge-131
FORMULA: C12H13NO2
SMILES: CC(C)N1C(=O)C(=O)C2=CC(C)=CC=C12
INCHIKEY: SYJHSTNDLFUIMT-UHFFFAOYSA-N
PRECURSORTYPE: [M+H]+
IONMODE: positive
CHARGE: 1
PARENTMASS: 203.094628656
NUM PEAKS: 12
79.0542     0.002097571439534072
89.0387     0.0010599220502321214
91.0542     0.0030653295442234466
106.0651    0.016166047199696658
116.0494    0.004046128178879959
134.06      0.009074319234179831
144.0444    0.01718946391635202
144.0552    0.0018645098967591275
162.0549    1.0
180.0655    0.0010876378785264604
194.0812    0.001972586423604563
204.1019    0.25390202750147456


