PRECURSORMZ: 445.1867919199999
COMPOUNDNAME: Challenge-034
FORMULA: C24H30O8
SMILES: C[C@]12CC[C@H]3[C@@H](CCC4=C3C=CC(O[C@@H]3O[C@@H]([C@@H](O)[C@H](O)[C@H]3O)C(O)=O)=C4)[C@@H]1CCC2=O
INCHIKEY: FJAZVHYPASAQKM-JBAURARKSA-N
PRECURSORTYPE: [M-H]-
IONMODE: negative
CHARGE: -1
PARENTMASS: 446.1940679199999
NUM PEAKS: 8
129.019     0.03307644430744865
145.0658    0.008896707197591601
157.014     0.011943772193153245
161.0243    0.0025036759765097046
175.0248    0.1360505268917933
269.1547    0.6036864777337877
427.1762    0.007235321470092448
445.1867    1.0


