PRECURSORMZ: 494.15109567599995
COMPOUNDNAME: Challenge-185
FORMULA: C23H28ClN3O5S
SMILES: COC1=C(C=C(Cl)C=C1)C(=O)NCCC1=CC=C(C=C1)S(=O)(=O)NC(=O)NC1CCCCC1
INCHIKEY: ZNNLBTZKUZBEKO-UHFFFAOYSA-N
PRECURSORTYPE: [M+H]+
IONMODE: positive
CHARGE: 1
PARENTMASS: 493.14381967599996
NUM PEAKS: 56
53.0388     0.001374730460304467
55.0544     0.002942058192525392
77.0387     0.0028430981446228463
79.0543     0.0010665662168976128
83.0856     0.008215290866141811
91.0542     0.005067991901560182
95.0491     0.004128542179684905
100.1121    0.03386472380247044
103.0542    0.018369065239671623
105.0699    0.016111900966207314
107.0491    0.01086590292991326
113.0152    0.008138698156358884
119.0492    0.014255487225258535
120.0571    0.0014510147045520688
121.0648    0.007610034857322853
125.9866    0.007405041575056588
129.0101    0.002970490823903554
131.0604    0.016987530603547255
134.0361    0.004641287222374741
134.0964    0.008417873813062282
138.023     0.0035097136873116436
139.0056    0.005566816540266337
139.0309    0.0011082449322520015
141.0101    0.004107462505834841
153.9815    0.0011772479551425113
154.9897    0.003285358812490903
165.07      0.0014366925780107545
166.026     0.0012202215083835552
166.0323    0.0013088120927672077
167.0161    0.01968396773335723
168.021     0.007443388145267756
169.0051    1.0
171.9921    0.003357740609035788
195.0805    0.003939058257590099
196.0885    0.001301889552265145
198.032     0.014553733943023834
208.0883    0.004450271733028962
209.0962    0.0031583499217250773
210.1038    0.010125994541307803
217.0411    0.0023600267690695722
224.0829    0.0023985419192826037
244.0526    0.00300599305493434
245.0361    0.0023825232322970016
245.0735    0.0033449428761283474
245.9987    0.0025564762733690438
259.0521    0.04484412411534057
262.063     0.011247743807751653
271.0522    0.0010167239252827608
288.0786    0.021068059763977954
303.0656    0.0013844471246672071
304.0736    0.10501752909206613
352.0416    0.0049439959299766014
369.0673    0.6587148794950691
370.0511    0.0050568369269687755
395.0465    0.04212742510403
494.1522    0.008313784628932818


