PRECURSORMZ: 305.09678944399997
COMPOUNDNAME: Challenge-011
FORMULA: C13H12F2N6O
SMILES: OC(Cn1cncn1)(Cn1cncn1)c1ccc(F)cc1F
INCHIKEY: RFHAOTPXVQNOHP-UHFFFAOYSA-N
PRECURSORTYPE: [M-H]-
IONMODE: negative
CHARGE: -1
PARENTMASS: 306.10406544399996
NUM PEAKS: 6
92.0819     0.006006542350670569
108.0192    0.04519387515379399
111.0427    0.005721023697024154
122.0354    0.0375336185925487
149.0577    0.006240036802002645
191.0687    1.0


