PRECURSORMZ: 160.956644108
COMPOUNDNAME: Challenge-031
FORMULA: C6H4Cl2O
SMILES: Oc1ccc(Cl)cc1Cl
INCHIKEY: HFZWRUODUSTPEG-UHFFFAOYSA-N
PRECURSORTYPE: [M-H]-
IONMODE: negative
CHARGE: -1
PARENTMASS: 161.963920108
NUM PEAKS: 3
124.9795    0.17616702321274627
132.9815    0.006353483703105494
160.9567    1.0


