PRECURSORMZ: 247.096484928
COMPOUNDNAME: Challenge-159
FORMULA: C14H14O4
SMILES: C=CCOC(=O)C1=CC=CC=C1C(=O)OCC=C
INCHIKEY: QUDWYFHPNIMBFC-UHFFFAOYSA-N
PRECURSORTYPE: [M+H]+
IONMODE: positive
CHARGE: 1
PARENTMASS: 246.089208928
NUM PEAKS: 4
53.0024     0.059747670723766584
53.9976     0.014157328054326923
149.0231    0.027817270420919766
189.0546    1.0


