PRECURSORMZ: 245.04554742000002
COMPOUNDNAME: Challenge-027
FORMULA: C13H10O5
SMILES: OC1=CC(O)=C(C=C1)C(=O)C1=C(O)C=C(O)C=C1
INCHIKEY: WXNRYSGJLQFHBR-UHFFFAOYSA-N
PRECURSORTYPE: [M-H]-
IONMODE: negative
CHARGE: -1
PARENTMASS: 246.05282342
NUM PEAKS: 13
129.0705    0.0013434186086676595
131.05      0.0013794434449592614
135.0086    1.0
153.0193    0.2956535580331782
156.0578    0.004875594348591565
157.0659    0.009092815577391037
158.0373    0.0031167149434448544
159.0451    0.023505478188430597
167.0349    0.027893009453966312
177.0557    0.007815409858060045
201.0556    0.025401035122956266
227.0347    0.012311302432138127
245.0455    0.7386073553761962


