PRECURSORMZ: 358.976804598
COMPOUNDNAME: Challenge-194
FORMULA: C12H14Cl3O4P
SMILES: CCOP(=O)(OCC)O\C(=C/Cl)c1ccc(Cl)cc1Cl
INCHIKEY: FSAVDKDHPDSCTO-WQLSENKSSA-N
PRECURSORTYPE: [M+H]+
IONMODE: positive
CHARGE: 1
PARENTMASS: 357.969528598
NUM PEAKS: 15
80.9737     0.0027477384283450023
98.9842     1.0
109.0048    0.0076558948200998985
116.9946    0.003443372151447551
127.0155    0.4590738794043135
131.0104    0.00389391533889718
155.0467    0.7593764515988155
168.9606    0.007972384717964688
169.9684    0.38956392813612617
196.9667    0.0013095742770844903
200.9863    0.0010362049974039402
204.9373    0.4537225555461938
236.9634    0.0013214936541007377
330.9455    0.03492458192851285
358.9769    0.16341030271776794


