PRECURSORMZ: 244.908169692
COMPOUNDNAME: Challenge-068
FORMULA: C8HCl3N2O
SMILES: Oc1c(Cl)c(Cl)c(C#N)c(Cl)c1C#N
INCHIKEY: MDQKYGOECVSPIW-UHFFFAOYSA-N
PRECURSORTYPE: [M-H]-
IONMODE: negative
CHARGE: -1
PARENTMASS: 245.915445692
NUM PEAKS: 7
146.9756    0.0028074793338547003
150.9705    0.001943980717410823
174.9704    0.017019231328182925
178.9654    0.0022372026626424897
181.9444    0.0061340913618883495
209.9394    0.010894678738894993
244.9081    1.0


