PRECURSORMZ: 538.7498020239999
COMPOUNDNAME: Challenge-071
FORMULA: C15H12Br4O2
SMILES: CC(C)(c1cc(Br)c(O)c(Br)c1)c1cc(Br)c(O)c(Br)c1
INCHIKEY: VEORPZCZECFIRK-UHFFFAOYSA-N
PRECURSORTYPE: [M-H]-
IONMODE: negative
CHARGE: -1
PARENTMASS: 539.757078024
NUM PEAKS: 3
288.887     0.07718524397965397
443.8019    0.019337814952936936
538.7499    1.0


