PRECURSORMZ: 248.001447176
COMPOUNDNAME: Challenge-009
FORMULA: C6H8ClN5O2S
SMILES: CN=C(NCC1=CN=C(Cl)S1)N[N+]([O-])=O
INCHIKEY: PGOOBECODWQEAB-UHFFFAOYSA-N
PRECURSORTYPE: [M-H]-
IONMODE: negative
CHARGE: -1
PARENTMASS: 249.008723176
NUM PEAKS: 13
95.0236     0.07623836839490133
117.9518    0.08695307530648663
122.0356    0.1621725605288139
139.0265    0.1798618804291296
150.0004    0.414605216604509
151.0085    0.0734929905864475
165.0239    1.0
166.0318    0.3893574075900029
168.0238    0.061657898857961496
195.022     0.04725239882219425
208.0183    0.03570151169782283
212.0256    0.22232823505074112
248.0014    0.7182788027832717


