PRECURSORMZ: 195.08044094
COMPOUNDNAME: Challenge-162
FORMULA: C14H10O
SMILES: O=C1C2=CC=CC=C2CC2=CC=CC=C12
INCHIKEY: RJGDLRCDCYRQOQ-UHFFFAOYSA-N
PRECURSORTYPE: [M+H]+
IONMODE: positive
CHARGE: 1
PARENTMASS: 194.07316494
NUM PEAKS: 19
55.0544     0.005798728167588588
57.07       0.01654844912236692
69.0699     0.04148697744487314
71.0856     0.013742501806371637
83.0855     0.008051155177164527
89.0598     0.0013034564245783965
133.0283    0.0022281252230860636
135.0441    0.002109468456381212
152.0619    0.007201851939572783
165.0696    0.009303289297673366
166.0776    0.0033500938379209277
167.0855    0.01824874021006618
176.0619    0.0037440930146291082
177.0699    0.0895240118997025
178.0777    0.022184678899511028
181.0646    0.026984757092218693
194.0727    0.04033839695608866
195.0805    1.0
205.0761    0.0040164081259036035


