PRECURSORMZ: 253.04638100399998
COMPOUNDNAME: Challenge-154
FORMULA: C11H12N2OS2
SMILES: C1CN(CCO1)SC1=NC2=CC=CC=C2S1
INCHIKEY: MHKLKWCYGIBEQF-UHFFFAOYSA-N
PRECURSORTYPE: [M+H]+
IONMODE: positive
CHARGE: 1
PARENTMASS: 252.039105004
NUM PEAKS: 25
56.0497     0.14940983926755277
57.0575     0.06955517876812935
58.0653     0.03183223682821054
68.0496     0.0028148584468428053
72.0445     0.003439961993419639
86.0601     0.7354594792813762
87.0679     0.28973417530617324
118.0322    0.010059038562114101
136.0216    0.034677359426575294
148.0214    0.0034179884124829417
162.0373    0.0022900269021633277
163.0327    0.0026099359579577824
163.0453    0.003472996186982863
165.9781    0.048061608081662675
166.9859    0.012457133281633705
167.9937    0.05982300810021697
175.0325    0.0014174186814216595
176.0406    0.0017160562001147987
182.0091    0.0010057305941395022
192.0353    0.0016152561986755112
198.0043    0.004193233517692521
205.0432    0.002276163003079919
219.0592    0.001993235426313088
220.0666    0.07297429846851973
253.0465    1.0


