PRECURSORMZ: 459.086601512
COMPOUNDNAME: Challenge-177
FORMULA: C21H16ClFN4O5
SMILES: CO\N=C(\C1=NOCCO1)C1=C(OC2=C(F)C(OC3=C(Cl)C=CC=C3)=NC=N2)C=CC=C1
INCHIKEY: UFEODZBUAFNAEU-NLRVBDNBSA-N
PRECURSORTYPE: [M+H]+
IONMODE: positive
CHARGE: 1
PARENTMASS: 458.079325512
NUM PEAKS: 256
63.0231     0.0029804135101784263
65.0387     0.0333059757393908
69.9925     0.006544870775222534
73.0196     0.0025140241975436673
73.0285     0.005989521837140973
75.0229     0.008386885750483327
77.0386     0.008948900364869136
78.0338     0.013814233119634612
79.0418     0.002749287096722204
79.0542     0.001971487635301842
80.0495     0.0025717422974212505
81.0336     0.0028091752640168398
86.0238     0.006749043243334148
86.9877     0.0023511924991258416
86.9997     0.0072034435356779225
90.0338     0.06254710206875964
91.019      0.0015183683615645016
91.0418     0.0015647915999515095
91.0542     0.011666917468941978
92.0256     0.0026046327238633663
92.0496     0.007371782519215717
93.0335     0.023393162522677313
94.0413     0.0020953084850468123
95.0492     0.018532250924435584
96.0443     0.0019282746076448038
97.0035     0.0016957138913044545
98.9996     0.010042526752048054
102.0337    0.008837760504440163
104.0141    0.0013649110916152975
104.0495    0.02462245644449147
105.0336    0.007574498786689249
105.0448    0.011209606965097433
106.0288    0.0247043146283303
106.0526    0.00226587228038655
106.0653    0.0013978825397470511
107.0292    0.0019509847682727122
107.0494    0.0022963211072625565
108.0445    0.004913174967608842
110.9998    0.0069344953215886625
111.0441    0.01739388085659809
112.0076    0.0028864524377280433
113.0398    0.0016183907323099433
115.0419    0.0016515921068582364
116.037     0.0020869763896665026
117.0448    0.0028186153857473304
117.0575    0.00560295421722712
118.0289    0.0022472788975023946
118.0525    0.0018461229939029647
119.0366    0.014476524118711755
120.0444    0.09317074966347531
121.0396    0.0025268606609127548
122.0401    0.018450132157324675
123.0354    0.0029331756753442507
125.0155    0.0014925180630192833
125.0598    0.0028635561461915074
126.0107    0.002137012757456273
128.0024    0.00823805328616966
129.01      0.038865730067613256
129.0448    0.03394568358481298
130.029     0.031173388518009063
130.04      0.045169662045831824
130.0524    0.002453227273459852
131.0605    0.0026842069719645685
132.0244    0.0017160284376495616
132.0291    0.0015293194283179654
132.0444    0.018230107905124214
132.0556    0.004916965468818649
133.0324    0.005911423497656415
133.0397    0.006829749605314883
133.0521    0.0014938319282566514
134.0239    0.0021345295521576473
134.0401    0.0073983839107216315
134.0474    0.0021325434258738256
134.0601    0.007858930902600892
136.0395    0.007389235029118757
138.0105    0.20364420669517697
138.9945    0.014505183899089544
139.0057    0.06096812072424456
140.9902    0.0022395446108050875
141.0102    0.0020027335404218523
142.0402    0.005795788028340248
143.0059    0.0027156236795654364
143.0607    0.001621333790441648
144.0318    0.012606379288718909
144.0557    0.009636117577274545
145.0397    0.10743751957659203
146.0239    0.007901116925597388
147.0354    0.004620088859333734
147.0553    0.004687102555765696
149.0512    0.0016578001201048007
150.035     0.0969623129143493
151.0057    0.008769360680182779
154.0401    0.01196740501805426
154.9896    0.005710857589621376
156.0012    0.002375082948691986
157.0398    0.0058738929371509934
158.0171    0.0018366609744185183
159.0355    0.007381870814463309
160.0269    0.009001446215262278
160.0432    0.008771467244113358
160.0505    0.006341769107279374
161.0277    0.0032853156464882657
161.0345    0.026846315694137778
162.035     0.010596272774540024
162.0425    0.013954952466107534
162.0551    0.00756145867420837
162.9947    0.0012334763928197792
163.0058    0.015432626041719952
163.0501    0.01429620925353535
164.0342    0.07371894197760893
165.0461    0.002223522024235383
166.0056    0.007296865923380986
167.0374    0.0015527938205589429
168.0012    0.03023812668744092
168.0456    0.0016568453780323135
170.035     0.021878512399734564
173.0345    0.0015263260053521614
174.0463    0.005356234413178734
175.0304    0.0326152570761278
176.0382    0.026661343176694906
177.0227    0.0015568317663884543
177.046     0.0028039526496983014
178.03      0.07263077689026667
179.0008    0.043089973228681924
180.0454    0.0017516867401917331
182.0352    0.0013155360359950025
182.0608    0.001803748650222446
183.0121    0.0066551237766162815
183.9962    0.02249062907517201
184.0504    0.0017102649488083068
185.0343    0.0013281206751935937
186.0298    0.0018139311058120492
186.0464    0.004938033297899848
187.0305    0.005038839608236919
187.0547    0.0014069547792110782
188.0381    0.5754800250440233
189.0456    0.008207072343872518
190.0412    0.009522067505344805
190.05      0.0129750060788165
191.0253    0.013071323349592563
195.0122    0.0017012102275474445
195.0568    0.0015799864514216722
196.0502    0.0016490300696453684
198.0303    0.002262931412030241
200.0272    0.0012776463523247006
200.0381    0.001408209520512765
201.0328    0.0014969326502168405
202.0417    0.008934969013802242
202.0525    0.0012776025568167883
203.0254    0.005878068838830429
204.0331    0.002094984398288261
204.0567    0.002276751084551958
204.0768    0.010190805203186631
205.0409    0.038872279685821534
205.0609    0.021040115283791388
207.1256    0.0011904801529269064
211.0069    0.0019360067045667152
211.9908    0.00945809978648814
213.0334    0.002372928209702702
214.0068    0.020960122788589625
214.0407    0.008198004483959282
214.0612    0.008812172978942419
215.0494    0.004980092313923398
216.0569    0.0052425697417186196
217.0406    0.001558607674234297
218.0362    0.012739119093650211
220.0279    0.007189599775626854
220.0521    0.0019978569106158207
221.0357    0.005592837454899386
221.0461    0.001295041928067455
221.9995    0.0011902786935905098
223.0071    0.009542581321250913
223.0667    0.0019076534927443105
223.9911    0.008361790924449596
225.0585    0.004801334379053274
228.0442    0.007877399468287498
228.0556    0.0015519989320903352
229.028     0.008730487787359846
229.0522    0.005035995089998017
230.0362    0.06126155500680758
231.0202    0.026018103223559602
232.0524    0.008305993257593966
232.0625    0.001921488493693797
239.0369    0.002065358926961005
240.0437    0.006146502455701719
241.0182    0.0022958678237556644
241.0522    0.009934152577943741
242.06      0.010956438272508964
243.0442    0.00453806425256484
244.0516    0.009870116976049814
245.0224    0.001452524005193797
245.0597    0.001403606612631185
246.031     0.05252192709694644
247.0515    0.0017409437021008532
248.0617    0.001443110160768054
250.0184    0.002212811832775437
251.0614    0.0076953262134684145
252.0689    0.005423173657247245
255.0317    0.010486523421487268
256.0391    0.0012623223041061968
257.0469    0.009708010093287934
260.0584    0.0018075873264909567
261.068     0.0022722423370123896
262.0542    0.0026964916119339606
264.0323    0.0024228507091719007
266.013     0.026801657414719637
267.0323    0.005337288476455885
271.0627    0.0014563013677512304
272.0346    0.001746650256781822
274.0624    0.018148554100065377
277.0647    0.007295328701053264
278.0717    0.01139193204408701
279.0198    0.0014484159865516258
279.0571    0.006584709358994931
280.0646    0.0089366376226537
281.0672    0.0016645774749542248
286.0613    0.0015480704750306042
290.0578    0.005504970527374995
294.0669    0.0012963908297111528
299.0571    0.002696585772275972
300.0656    0.002677363923853276
301.0724    0.00282789565387394
304.0521    0.00651404092742769
304.0754    0.002885784556232381
306.0674    0.1384521077726866
308.0231    0.0053876270332502505
312.0341    0.001503451611569582
313.0416    0.00426474305701054
313.0722    0.0017763195236169904
315.0332    0.04020009379245974
318.0673    0.012369520043276967
320.0225    0.0028773736289378292
321.0549    0.0021719287261393314
321.0778    0.0014803823277767928
327.0453    0.001825039836393997
331.0628    0.012324016510556118
339.0442    0.005739502041571397
340.0288    0.036935587581556
340.0492    0.0024763513016375317
341.0376    0.0016939467425601945
342.0441    0.0198249651212575
343.04      0.002342674272836905
347.0327    0.001726432060554122
349.0491    0.0013155426053211893
355.0393    0.002854407264588634
358.039     0.005286658679533904
367.0397    0.06294299594208343
368.0244    0.0018387522099213292
369.0555    0.002134604004521098
383.0344    0.04992157976353229
385.0505    0.009569837455600114
391.0835    0.0020882902549038706
397.0507    0.005811352951852269
427.0608    1.0
428.066     0.0018241310796048172
459.0869    0.8174543668325758


