PRECURSORMZ: 212.019831908
COMPOUNDNAME: Challenge-136
FORMULA: C9H9NOS2
SMILES: CCOC1=CC=C2N=C(S)SC2=C1
INCHIKEY: HOASVNMVYBSLSU-UHFFFAOYSA-N
PRECURSORTYPE: [M+H]+
IONMODE: positive
CHARGE: 1
PARENTMASS: 211.012555908
NUM PEAKS: 15
108.0444    0.013706263638491986
122.006     0.00132355985918226
125.0056    0.00572732276075118
126.0135    0.006781253615796743
140.0165    0.008397777624145588
150.0009    0.018507098559240945
151.0087    0.10193181245890064
152.0165    0.014381656112075123
155.9937    0.001342328157031672
156.9776    0.0011703358185044675
179.04      0.013669679221404902
180.0478    0.002403723009346513
182.9809    0.012650198278785985
183.9887    0.478987448751581
212.0199    1.0


