PRECURSORMZ: 361.1394123599999
COMPOUNDNAME: Challenge-170
FORMULA: C18H20N2O6
SMILES: CCOC(=O)C1=C(C)NC(C)=C(C1C1=CC=CC(=C1)[N+]([O-])=O)C(=O)OC
INCHIKEY: PVHUJELLJLJGLN-UHFFFAOYSA-N
PRECURSORTYPE: [M+H]+
IONMODE: positive
CHARGE: 1
PARENTMASS: 360.1321363599999
NUM PEAKS: 153
67.018      0.025938596513775596
84.0444     0.00825042990241017
85.0284     0.004756136621516343
99.0441     0.01538339572557368
106.065     0.0013226449020061666
110.0234    0.0018731278556086688
113.0596    0.002334272020184263
115.0541    0.0018835268727702321
118.0413    0.0017303830448076383
126.0549    0.004977228890470131
128.0496    0.0011605716654330522
128.062     0.0025481363854849164
134.06      0.006718477539184625
139.0539    0.0020267075370578843
140.0618    0.004595524611696452
140.0705    0.01766939976604726
141.07      0.002268363149995848
142.0499    0.0043082692246870545
142.0775    0.002213884258100812
150.0187    0.0041614033632913685
152.0341    0.0015716904666884443
152.0705    0.001394647339209458
153.0695    0.0013982235729458365
154.041     0.002192957702877784
154.0861    0.004428743598681308
156.0572    0.0015305023122027465
156.0655    0.0017576602088453447
166.0862    0.027549756866396713
167.0731    0.004884752515126071
168.0572    0.015067943970699023
168.0808    0.02644504708949894
171.1039    0.004298632951127078
174.0549    0.0023708390101387345
176.0341    0.009088648799430395
178.0496    0.0013732150821846453
180.0809    0.013565872716700485
181.0885    0.016873771577681218
182.0596    0.001300072720477883
182.0728    0.0010538378519977904
182.0966    0.017159199732765935
183.068     0.0013268385948485917
183.1045    0.016972355489703186
184.0523    0.001218246816229977
184.0756    0.001979467724546408
185.1197    0.001535936511122478
186.055     0.029239954778524403
194.0965    0.002573237076022124
195.0678    0.004412622607541539
196.0522    0.0017054891052833154
196.0759    0.007282024921655336
196.112     0.0016950677366608996
197.0474    0.0013528277559546806
197.0835    0.006117474696190563
197.1201    0.004430221589030171
198.0677    0.0010922572192704014
198.0914    0.006659846863436262
200.0343    0.01810693520009754
200.0706    0.0017476914573051894
207.0678    0.002355715452939502
208.0755    0.018463463352153636
209.0836    0.0673252207961121
210.077     0.00404858436463905
210.0914    0.060481494052108634
211.0874    0.0016391974663278036
211.0991    0.029579191281678588
212.0704    0.008359032856759211
212.0944    0.00522808492348145
213.0786    0.0014350811318913884
214.0497    0.00971203942440071
214.0866    0.0025425932231935297
215.0814    0.0014238299652848286
215.0943    0.002604448097169847
216.0661    0.001353182585395712
217.0607    0.005123767861750851
221.071     0.001335946815145931
222.0553    0.0014253414828249698
223.0639    0.0010597945163149458
223.0869    0.0049009992332331356
224.0705    0.0022422426740572516
224.1072    0.0014487741955960694
225.066     0.005085435106389043
225.0784    0.010671981583290316
226.0863    0.08714773119820259
227.0815    0.03115595273604791
227.0938    0.006952779521502161
228.0648    0.001563236026621037
228.0891    0.006900924132324671
228.1007    0.00117895853591673
229.0976    0.005084487963235423
229.1095    0.0017579256324429667
232.0607    0.005615491618705088
235.0624    0.0016089335883336996
236.0705    0.012108954207556335
237.0783    0.0180451110593799
238.05      0.0014309461116337005
238.0736    0.011930500144111043
238.1079    0.0015797230229322634
239.0816    0.01525964406863195
240.0658    0.008532516514097458
240.0896    0.023336305332578005
240.1009    0.002447029552319238
241.0608    0.014982114361025936
241.0734    0.015919889458615208
242.0446    0.002564765872359077
242.0687    0.004669337517228786
242.0811    0.009771290353187726
243.0892    0.010866260481019083
246.0764    0.0013056913189496467
253.0732    0.02580159044054841
254.0812    0.07936846729662768
255.0764    0.09029424413003141
255.0892    0.05328199910571805
256.0846    0.006988430101561685
256.0968    0.004257690662710757
257.069     0.0018801126871250333
257.0922    0.030943834578626345
257.1051    0.0023243982623527303
259.0721    0.0018215099507027355
265.061     0.0020146600996584583
266.0687    0.004707804381355708
267.0759    0.0016031389721077238
267.0891    0.02448465074892481
268.0969    0.04250241479595184
269.0687    0.007326632849651446
269.1046    0.07879138610461087
270.0765    0.0037536736022877166
270.0998    0.0018052213236065735
271.0716    0.0016608727954893858
272.0553    0.0052260677041395245
273.0868    0.008262122510368562
281.0917    0.001819551403945547
281.1053    0.0019188896777712823
282.1126    0.0025576301684819593
283.0714    0.1136721203858622
283.1199    0.011360269674845476
284.0789    0.018426102885338906
284.0923    0.0021989199550601526
285.0634    0.013151049160808814
285.1234    0.0013781631368308379
287.0789    0.012607922631759347
287.1028    0.004757466533437059
290.0656    0.0013087674387494536
297.0876    0.0024671151338276956
298.0949    0.03933349731855112
299.0794    0.012486464793487589
301.0815    0.09296861597854529
301.0941    0.00968820997319948
312.1104    0.012605109141624556
315.0976    1.0
318.0966    0.0017494376651842804
329.1133    0.7779586880184212
333.1093    0.0017532597649900351
361.1395    0.2262489465477107


