PRECURSORMZ: 376.98586339599996
COMPOUNDNAME: Challenge-094
FORMULA: C13H18Br2N2O
SMILES: NC1=C(Br)C=C(Br)C=C1CNC1CCC(O)CC1
INCHIKEY: JBDGDEWWOUBZPM-UHFFFAOYSA-N
PRECURSORTYPE: [M+H]+
IONMODE: positive
CHARGE: 1
PARENTMASS: 375.97858739599997
NUM PEAKS: 8
81.0699     0.029032556517058265
98.0601     0.04831219089812852
104.0496    0.011797886110624161
116.1071    0.07785781446716282
166.0743    0.034604358458125054
182.968     0.04609856553712233
261.8863    1.0
376.9863    0.22827344747415187


