PRECURSORMZ: 254.99688297600005
COMPOUNDNAME: Challenge-018
FORMULA: C10H8O6S
SMILES: CC1=CC(=O)OC2=CC(OS(O)(=O)=O)=CC=C12
INCHIKEY: FUYLLJCBCKRIAL-UHFFFAOYSA-N
PRECURSORTYPE: [M-H]-
IONMODE: negative
CHARGE: -1
PARENTMASS: 256.00415897600004
NUM PEAKS: 5
131.05      0.007947829432477082
133.0293    0.006261226849294415
147.045     0.004275284944258937
175.04      1.0
254.9969    0.17542202230162432


