PRECURSORMZ: 313.216206136
COMPOUNDNAME: Challenge-183
FORMULA: C21H28O2
SMILES: CC(=O)[C@H]1CC[C@H]2[C@@H]3C=CC4=CC(=O)CC[C@@]4(C)[C@@H]3CC[C@]12C
INCHIKEY: JGMOKGBVKVMRFX-HQZYFCCVSA-N
PRECURSORTYPE: [M+H]+
IONMODE: positive
CHARGE: 1
PARENTMASS: 312.208930136
NUM PEAKS: 157
55.018      0.0020717049954527005
55.0544     0.006838201120067633
59.0493     0.0010499295775590342
67.0543     0.013628773651549343
69.07       0.007345714440299798
71.0492     0.027734667226961766
79.0542     0.016605949974543916
81.0699     0.02824464203471242
83.0492     0.027685198497221244
83.0855     0.0021667662095405534
85.0648     0.07545075810947817
91.0542     0.01377128660948878
93.0699     0.03218356932705512
95.0855     0.05287398264092088
97.0648     0.0742788223937818
99.0441     0.010963529931783816
99.0805     0.0016027940129740945
105.0699    0.033641235947774024
107.0491    0.011323755486249414
107.0855    0.030362959956425455
109.0648    0.02813634136348628
109.1012    0.023843320727330846
111.0804    0.007797069998204787
113.0596    0.0013921838833459482
113.0961    0.005484863333433386
117.0699    0.008159150032587227
119.0856    0.03706775084278465
121.0648    0.03042588322473792
121.1013    0.01832605657081427
123.0805    0.022509863634547392
123.1168    0.003513185543392249
125.096     0.0032642096655875635
127.0755    0.00996452924792045
128.0619    0.0014636411049870788
129.0699    0.014049618713193593
131.0855    0.043161970945079293
133.0648    0.013911481467532167
133.1012    0.03996823390612546
135.0805    0.00797071957835627
135.1168    0.01942217847094116
137.096     0.011676771033100173
141.0698    0.005249724361193804
142.0777    0.006822211010372278
143.0855    0.036796102992079076
144.0931    0.0012401858341823473
145.0649    0.003474310769156061
145.1012    0.04511069237676838
147.0804    0.02364625355864181
147.1168    0.0211624262485764
149.0961    0.023858197193158612
149.1327    0.005261881241782694
151.1119    0.007638987534262473
153.0691    0.0013686754826475165
155.0855    0.03404527359027503
156.0932    0.004877473364793215
157.1012    0.05617604424903792
158.0729    0.0013115068375821634
159.0805    0.009217080639478207
159.1169    0.05656139848433547
160.088     0.001058038147607807
161.0961    0.0415276603326937
161.1324    0.007769329272850777
162.1039    0.001947593449059253
163.1117    0.03652406321520551
165.0698    0.0014756856652717281
166.0778    0.0032962161727090526
167.0856    0.004960714659204902
168.093     0.0017584962423839666
169.1012    0.030964972889224264
170.1092    0.0010161522333004562
171.0804    0.025966924872724367
171.1168    0.04819193943612722
173.0961    0.06645263992863502
173.1326    0.01880343698219145
175.1118    0.04989537961108306
175.1484    0.0052176748377855825
177.1274    0.022399588993719046
179.0856    0.0019264748420680933
180.0929    0.0010102876795428115
181.1011    0.018643566952556097
182.1089    0.004453937395434576
183.1169    0.034347190568076905
184.1245    0.001808815738684279
185.0958    0.007077809006539814
185.1325    0.023301337022664993
187.1116    0.01539767266594106
187.1482    0.02074260640843257
189.1274    0.01620911278048292
189.1635    0.0014168322156427485
191.1431    0.00366497329070961
192.093     0.0016772575950989728
193.1012    0.00592864563508003
194.1089    0.0011156704126523709
195.1168    0.031242956083047817
195.1251    0.0015709882485240155
196.1243    0.006239720302368171
197.096     0.0020287460637707848
197.1325    0.03798470512908996
198.14      0.001105461213934906
199.1118    0.04038320246504353
199.1483    0.01533799712727678
201.1275    0.017889766272439926
201.1638    0.004550609330481131
203.1432    0.005043690686515082
206.1086    0.002041892318954486
207.1168    0.011921423774088405
207.1387    0.0010027168130781747
208.1245    0.0015170553841383082
209.1324    0.018050532474715504
210.1402    0.005207828887711623
211.1117    0.013918263702073405
211.1481    0.05845112307877314
212.1198    0.0015641343201715603
213.1273    0.018716407864753735
213.1637    0.01450728093669207
214.1354    0.001664531943607751
215.1433    0.011537680259749546
215.1795    0.007356327514153793
217.1585    0.00644676246999136
220.125     0.0010964755895955646
221.1326    0.02308624364004201
222.1404    0.004688316413275246
223.1482    0.005619528208838145
224.12      0.00155673312906014
225.1274    0.026208960789603133
225.1638    0.028329728249866126
227.143     0.012496307768722266
227.1793    0.005035931026347571
228.151     0.0033169978187874874
229.1588    0.05002600573512253
231.1745    0.006275865932190656
234.1405    0.001077617727451484
235.1481    0.014670795401731015
237.1637    0.03831874332411128
239.1431    0.037774914698703414
240.1511    0.0014265491168565152
241.1584    0.0010757608577409339
243.1745    0.01162582780064226
245.1906    0.0016245052888046578
248.1552    0.0011682626027682988
249.1638    0.00818767700007093
251.1795    0.0234190917177971
252.187     0.006888083284119515
253.159     0.010325008120519017
253.1951    0.06489125865081424
255.1742    0.04231938703894427
265.1597    0.0015375669835278212
267.1746    0.01115806869873056
267.2107    0.007799610348915617
269.1901    0.04162633491486695
271.2057    0.03306479858723044
277.1952    0.0463330575192756
280.1818    0.001122760930581846
285.2207    0.0012072807646269234
295.2058    0.28460397390192327
298.1928    0.0016499804897241739
313.2162    1.0


