PRECURSORMZ: 470.305355488
COMPOUNDNAME: Challenge-164
FORMULA: C32H39NO2
SMILES: CC(C)(C)C1=CC=C(C=C1)C(=O)CCCN1CCC(CC1)OC(C1=CC=CC=C1)C1=CC=CC=C1
INCHIKEY: MJJALKDDGIKVBE-UHFFFAOYSA-N
PRECURSORTYPE: [M+H]+
IONMODE: positive
CHARGE: 1
PARENTMASS: 469.298079488
NUM PEAKS: 15
91.0542     0.0022934630704978653
105.0699    0.0024109383297573057
146.0727    0.00737529159222139
152.0621    0.04546856136659171
161.0961    0.32954265997644294
165.0699    0.055541585368953546
166.0778    0.020806102236206468
167.0855    1.0
169.0647    0.0013585672834216672
173.0963    0.0017412581478913483
188.1196    0.014913327590557817
203.1431    0.5572450235233803
284.2014    0.0021073036214245594
302.2116    0.01374668834001682
470.3057    0.7561151295056875


