PRECURSORMZ: 191.045118052
COMPOUNDNAME: Challenge-102
FORMULA: C9H6N2O3
SMILES: [O-][N+](=O)c1cc[n+]([O-])c2ccccc12
INCHIKEY: YHQDZJICGQWFHK-UHFFFAOYSA-N
PRECURSORTYPE: [M+H]+
IONMODE: positive
CHARGE: 1
PARENTMASS: 190.037842052
NUM PEAKS: 35
53.0388     0.0031190108939937794
66.0465     0.0031835925887547076
77.0386     0.007622835598031504
89.0385     0.004274516582211177
90.0464     0.026378154765039335
91.0417     0.02518031232959555
93.0571     0.0033799834543116465
94.0413     0.0016655469165394031
95.0492     0.01829312283729677
101.0389    0.002268819021765904
104.0495    0.05200615621915733
105.0336    0.0024993842082106704
105.0448    0.005062339363279784
105.0574    0.007108360668826326
109.0524    0.0016828825171190116
116.0495    0.09536717328635763
117.0573    0.0157107341427244
119.0366    0.0015525979618565826
120.0445    0.002929907605750561
121.0522    0.002000066250702852
128.0495    0.13823164558252204
132.0444    0.06479776972954424
133.0522    0.0128576985864818
134.0238    0.003375685652306119
144.0444    0.04581497707555808
145.0522    0.5100701493019044
148.0392    0.002122812665095902
149.0472    0.06534411294555721
160.0393    0.014021557808834446
161.0471    0.3941029654833838
162.0186    0.05201425069605706
176.0343    0.0018193037560751044
177.0421    0.1649580284810073
180.0292    0.04517344094259461
191.0451    1.0


