PRECURSORMZ: 303.2318562
COMPOUNDNAME: Challenge-207
FORMULA: C20H30O2
SMILES: CC(C)C1=CC2=CC[C@@H]3[C@](C)(CCC[C@@]3(C)C(O)=O)[C@H]2CC1
INCHIKEY: RSWGJHLUYNHPMX-ONCXSQPRSA-N
PRECURSORTYPE: [M+H]+
IONMODE: positive
CHARGE: 1
PARENTMASS: 302.2245802
NUM PEAKS: 31
57.0701     0.02468117282430438
67.0543     0.0669281678861544
69.07       0.054616540887042785
79.0543     0.0770895014602841
81.0699     0.24678846950186162
91.0542     0.027275662600491444
93.0699     0.2942221638473424
95.0855     0.06840578203184715
105.0699    0.030958752674755233
107.0855    0.22305315215230007
109.1013    0.29110640463642484
111.1168    0.013661090041427923
119.0855    0.023672381932245006
121.1012    0.3744785025383952
123.1169    1.0
133.1014    0.10365645653534143
135.1169    0.2750861485531239
137.1326    0.10770803803853107
139.1119    0.12483969710734229
147.1167    0.08758421032469203
149.1325    0.3652169630103926
159.1165    0.020046298576565043
161.1327    0.01412763302631795
167.1067    0.10848424151876843
173.1324    0.019390493285976713
179.1067    0.017163582831218157
193.1227    0.01624509058139556
201.1637    0.06590387116664022
257.2265    0.33101019553760525
285.221     0.10929601719140211
303.2321    0.8191062805898052


