PRECURSORMZ: 374.09340437
COMPOUNDNAME: Challenge-195
FORMULA: C14H20N3O5PS
SMILES: CCOC(=O)c1cn2nc(OP(=S)(OCC)OCC)cc2nc1C
INCHIKEY: JOOMJVFZQRQWKR-UHFFFAOYSA-N
PRECURSORTYPE: [M+H]+
IONMODE: positive
CHARGE: 1
PARENTMASS: 373.08612837
NUM PEAKS: 66
64.9787     0.021639667929661335
82.9892     0.0038498312011736808
93.01       0.019195829754620135
96.9507     0.015579669347448189
98.9664     0.0022325375918993
98.9842     0.004497652432634576
109.0048    0.0028108507953989734
110.9664    0.002096210194092966
111.0205    0.001955088519214094
113.9535    0.06921639536938484
114.9613    0.09199745620271475
124.9822    0.0014997251753740698
125.9898    0.005676980894808435
128.9769    0.0036173634712353647
130.9562    0.004865182853409058
133.0632    0.0019861195584724065
139.0502    0.0041284268319244505
141.9848    0.021469768263765888
142.9925    0.013738168671430977
148.0504    0.0167186032128283
149.0347    0.0024615666750227054
150.066     0.0023966032703616794
151.0503    0.0019831725138388327
159.0426    0.009394828982029039
165.0116    0.0052316453108240835
166.0611    0.014321857136399316
170.0159    0.020868651294295566
176.0454    0.17966421053929324
177.0295    0.008112008757402285
177.0532    0.07339565602436128
178.0611    0.0038230776659529788
180.0893    0.00423136226714392
181.0064    0.00979481850273489
183.0223    0.06611383081898765
190.0071    0.001688337059304586
192.0225    0.022296812137077387
194.056     0.6426492477510612
195.076     0.001790439287901141
199.0171    0.0036973538754895476
205.0845    0.05863089563033982
206.0926    0.004367580762481661
208.0175    0.01761141338966125
208.0714    0.0028308472406580174
209.0375    0.004774210251626345
210.0331    0.09433827366984882
211.0535    0.056527927318903416
222.0872    0.734667477613351
227.0481    0.001769168375545026
236.0487    0.04212443031680344
238.0643    0.19643523179787703
239.0844    0.001001808705622244
250.1184    0.002063510686825267
253.9781    0.004753230088313738
256.0118    0.004944917439600225
266.0955    0.003564961349897467
271.9888    0.010815094909528762
274.0221    0.003527339656525724
289.9989    0.004576957573242047
300.0204    0.017202294554465616
302.0535    0.002577351574154362
304.0143    0.0017320901671344679
318.0309    0.024000742797026346
328.0515    0.008498445057677212
332.0465    0.0024644957404751436
346.062     0.0808654766845979
374.0934    1.0


