PRECURSORMZ: 255.02989735600005
COMPOUNDNAME: Challenge-054
FORMULA: C14H8O5
SMILES: OC1=CC(O)=C2C(=O)C3=CC=CC=C3C(=O)C2=C1O
INCHIKEY: BBNQQADTFFCFGB-UHFFFAOYSA-N
PRECURSORTYPE: [M-H]-
IONMODE: negative
CHARGE: -1
PARENTMASS: 256.03717335600004
NUM PEAKS: 4
171.0449    0.01405280299496928
183.0453    0.018698439666794932
227.035     0.20566158456588868
255.03      1.0


