PRECURSORMZ: 331.190385312
COMPOUNDNAME: Challenge-205
FORMULA: C20H26O4
SMILES: O=C(OC1CCCCC1)C1=CC=CC=C1C(=O)OC1CCCCC1
INCHIKEY: VOWAEIGWURALJQ-UHFFFAOYSA-N
PRECURSORTYPE: [M+H]+
IONMODE: positive
CHARGE: 1
PARENTMASS: 330.183109312
NUM PEAKS: 11
55.0544     0.003888095637832342
65.0389     0.0029843401069877163
83.0855     0.013069291129707191
121.0283    0.0064575505995281175
149.0233    1.0
163.0389    0.018085747312581
167.0338    0.2370405682572334
181.0494    0.01584284839380889
231.1016    0.01240349510701459
249.1121    0.08687635158755778
331.1903    0.01609784321431511


