PRECURSORMZ: 312.97076994800005
COMPOUNDNAME: Challenge-069
FORMULA: C13H9Cl3N2O
SMILES: ClC1=CC=C(NC(=O)NC2=CC=C(Cl)C(Cl)=C2)C=C1
INCHIKEY: ICUTUKXCWQYESQ-UHFFFAOYSA-N
PRECURSORTYPE: [M-H]-
IONMODE: negative
CHARGE: -1
PARENTMASS: 313.97804594800004
NUM PEAKS: 4
123.9953    0.014301540666866704
126.0111    0.09948417568575904
159.9725    1.0
312.9706    0.03060637387456783


