PRECURSORMZ: 294.206369724
COMPOUNDNAME: Challenge-173
FORMULA: C17H27NO3
SMILES: CCCCCCCCC(=O)NCC1=CC=C(O)C(OC)=C1
INCHIKEY: RGOVYLWUIBMPGK-UHFFFAOYSA-N
PRECURSORTYPE: [M+H]+
IONMODE: positive
CHARGE: 1
PARENTMASS: 293.199093724
NUM PEAKS: 11
57.0701     0.007114992485790535
71.0857     0.0102230008133264
81.0699     0.0028863490701137324
91.0543     0.0016952497665452
94.0414     0.007505592147616953
122.0363    0.030047621981556142
137.0597    1.0
141.1274    0.021677656646658054
158.1541    0.011140590569564651
170.1539    0.008518945053006098
294.2064    0.016440325192630705


