PRECURSORMZ: 344.107436468
COMPOUNDNAME: Challenge-019
FORMULA: C17H19N3O3S
SMILES: COC1=CC=C2N=C(NC2=C1)S(=O)CC1=NC=C(C)C(OC)=C1C
INCHIKEY: SUBDBMMJDZJVOS-UHFFFAOYSA-N
PRECURSORTYPE: [M-H]-
IONMODE: negative
CHARGE: -1
PARENTMASS: 345.114712468
NUM PEAKS: 4
147.02      0.16708204731635373
178.992     0.6003229310528595
194.0155    1.0
344.1084    0.018047703387223207


