PRECURSORMZ: 306.10357512999997
COMPOUNDNAME: Challenge-186
FORMULA: C11H20N3O3PS
SMILES: CCN(CC)c1nc(C)cc(OP(=S)(OC)OC)n1
INCHIKEY: QHOQHJPRIBSPCY-UHFFFAOYSA-N
PRECURSORTYPE: [M+H]+
IONMODE: positive
CHARGE: 1
PARENTMASS: 305.09629913
NUM PEAKS: 45
62.0186     0.001077567122832092
67.0291     0.07531756366958382
68.0496     0.0027438099440798215
70.0652     0.003203393868469497
78.9943     0.00776395702720721
84.0442     0.0022530012527589003
88.0215     0.002341143247063336
95.0604     0.10083630965588407
99.0917     0.002039190924843137
100.0215    0.006798323510448754
108.0556    0.2899343933836375
109.076     0.029039704321355102
116.0528    0.0029642081273243753
119.0604    0.0037721724234406695
121.0633    0.0010408763599396675
123.0916    0.01575848341191131
124.982     0.021397645491674715
127.0154    0.009775356189552215
136.0869    0.08343151117102862
140.0817    0.0013489139483175744
142.9926    0.04651220968103106
150.0315    0.0012552904962220852
151.0267    0.010573134805988147
157.0081    0.005990399383210073
164.1182    0.348329000195361
168.0592    0.0011989019996704877
168.1132    0.0076445223614403255
179.058     0.013250139443389427
184.0902    0.0013387701909182122
196.1444    0.012105400552570731
197.0988    0.0023048838214043245
207.0893    0.023023249682602106
208.0193    0.001952929535372331
218.0152    0.0020706680224619263
223.0662    0.0017839452838677196
233.0145    0.00915172878560429
236.0255    0.0034132273181012945
246.0461    0.014655269098324741
247.1201    0.0019034535925768934
250.0411    0.007749156708610626
264.0559    0.0022280222680955055
274.0773    0.02400546003438966
278.0723    0.053613337189545585
304.088     0.0010027946699597496
306.1035    1.0


