PRECURSORMZ: 215.97836102
COMPOUNDNAME: Challenge-104
FORMULA: C7H5NO3S2
SMILES: OS(=O)(=O)C1=NC2=CC=CC=C2S1
INCHIKEY: ZCXGMSGCBDSEOY-UHFFFAOYSA-N
PRECURSORTYPE: [M+H]+
IONMODE: positive
CHARGE: 1
PARENTMASS: 214.97108502
NUM PEAKS: 29
68.0496     0.0015421771764409734
78.0339     0.012756881677654874
82.995      0.0011545073554351062
90.0338     0.0111420776987494
92.0495     0.03724345699131541
94.995      0.004465871013626119
96.0444     0.006732708800793395
98.006      0.001759360026850889
106.0287    0.06818057425114983
106.995     0.0025865817332066947
108.998     0.0011914071089144244
109.0107    0.008717804333244202
110.0059    0.0068216220423963
114.9671    0.011798499039342719
122.0059    0.007706862292647395
124.0216    0.03654979217351174
124.0393    0.0020374830728699363
134.0059    0.2689348557598746
135.0134    0.0037370351705198267
136.0213    0.00252441828549592
138.0008    0.009117848208567515
141.978     0.034415803608391506
150.0011    0.003578629078117789
151.0086    0.001674025555859403
152.0165    0.21980366298292553
153.978     0.06367867290289349
162.012     0.021892643958322487
169.9729    0.1560137550149545
215.9784    1.0


