PRECURSORMZ: 491.2322671879999
COMPOUNDNAME: Challenge-192
FORMULA: C24H34N4O5S
SMILES: CCC1=C(C)CN(C(=O)NCCC2=CC=C(C=C2)S(=O)(=O)NC(=O)NC2CCC(C)CC2)C1=O
INCHIKEY: WIGIZIANZCJQQY-UHFFFAOYSA-N
PRECURSORTYPE: [M+H]+
IONMODE: positive
CHARGE: 1
PARENTMASS: 490.22499118799993
NUM PEAKS: 58
53.0388     0.002587244340428934
55.0544     0.024555360386184277
70.0653     0.005560608747586457
77.0387     0.0038065663102007847
79.0542     0.006895782970761294
81.0699     0.030030588746613896
83.0856     0.010825452446068006
91.0542     0.0037095014936878107
93.0573     0.0018789817786392614
95.0492     0.006762827945028133
96.0444     0.003238928146423107
96.0808     0.003859530432401085
97.0523     0.004842129975875026
97.1012     0.012008505427650114
98.0601     0.012366830332850756
98.0965     0.009125817098385709
103.0542    0.03631962913426423
108.0808    0.018235303412055388
109.0648    0.04493916665452169
110.0599    0.0014552688010368588
114.1278    0.018801256911273226
118.0652    0.0151434677654768
119.0493    0.003199282614276172
120.057     0.001306599859195231
120.0809    0.003346494158939696
121.0649    0.02675776890096236
124.0757    0.05485614119032987
126.0914    1.0
131.0604    0.04479202365081457
151.0211    0.0065041904497773
151.0865    0.006300158452261512
152.0705    0.020240476306257152
160.076     0.0011838790804776164
167.0162    0.07909207186035884
168.0654    0.0015610960377122442
170.0812    0.07613460174024766
174.0663    0.02146882043034197
179.0817    0.006957888292093563
181.0972    0.094591858806207
184.0428    0.004119509887429776
184.0971    0.0049799297649997555
192.0119    0.002926323666557338
210.0221    0.015570730443136763
228.0324    0.003748836787821585
229.0646    0.003966299205372226
242.0488    0.0016849459385010136
243.1484    0.0010204161143107311
246.043     0.0032652731256104656
260.0586    0.0015102999741853113
271.1441    0.00426120929623156
287.1392    0.004782030379372029
292.0993    0.00643808450104276
335.1061    0.04838085698705788
352.1327    0.8083050138936126
353.118     0.001305005380104335
353.139     0.0013885604133697866
378.112     0.02303719263168846
491.2333    0.006461233307210812


