PRECURSORMZ: 200.05284628799998
COMPOUNDNAME: Challenge-171
FORMULA: C12H9NS
SMILES: CC1=NC2=C(S1)C=CC1=CC=CC=C21
INCHIKEY: OUXMJRMYZCEVKO-UHFFFAOYSA-N
PRECURSORTYPE: [M+H]+
IONMODE: positive
CHARGE: 1
PARENTMASS: 199.045570288
NUM PEAKS: 7
115.0542    0.03482807310112553
159.0263    0.18861180526008645
167.0725    0.0014071603894947708
168.0807    0.0015717747729106168
185.0295    0.0011599790480267692
199.045     0.0010026604106793929
200.0528    1.0


