PRECURSORMZ: 150.091339972
COMPOUNDNAME: Challenge-092
FORMULA: C9H11NO
SMILES: CC(=O)NC1=C(C)C=CC=C1
INCHIKEY: BPEXTIMJLDWDTL-UHFFFAOYSA-N
PRECURSORTYPE: [M+H]+
IONMODE: positive
CHARGE: 1
PARENTMASS: 149.084063972
NUM PEAKS: 8
65.0388     0.0010022784731891978
91.0541     0.009224480980547397
93.0573     0.05489900243674959
106.0651    0.0010185522635407002
108.0807    1.0
109.0648    0.02004169950312841
132.0807    0.009260044707381941
150.0913    0.7655451544443569


