PRECURSORMZ: 287.094770676
COMPOUNDNAME: Challenge-152
FORMULA: C13H18O5S
SMILES: CCOC1Oc2ccc(OS(C)(=O)=O)cc2C1(C)C
INCHIKEY: IRCMYGHHKLLGHV-UHFFFAOYSA-N
PRECURSORTYPE: [M+H]+
IONMODE: positive
CHARGE: 1
PARENTMASS: 286.087494676
NUM PEAKS: 59
55.0544     0.007494655112851114
57.0701     0.0028963499615748548
71.0492     0.009030978796624789
77.0387     0.002577923236401179
79.0542     0.004234796395099417
81.0699     0.010093724116201509
82.0652     0.002139009047349713
91.0542     0.02667460986835117
93.0699     0.03345446364506266
95.0491     0.006748414175998141
95.073      0.003446015880160924
103.0543    0.021008970580037072
103.0573    0.002432197276487228
105.0699    0.04899883475042011
107.0492    0.008788515603746683
109.0647    0.0028592673556052622
115.0544    0.02001332121306754
116.0619    0.0024712642359535214
117.0698    0.0075791761696012054
121.0648    1.0
122.0682    0.1057199051553442
123.0443    0.0023377544522536335
123.0685    0.01209649489379337
130.0653    0.0037963162833753532
133.0648    0.0725841162796423
134.0683    0.004179792596612746
134.0727    0.023900049602636312
135.0718    0.0023618767494479006
135.0805    0.011558673085140735
137.0597    0.0728124409538564
138.063     0.007103985518188182
139.0638    0.002419423000852218
145.0649    0.014687626483156963
147.0437    0.006327111124229894
147.1044    0.0019981819601307418
149.0963    0.03584511352021272
150.0104    0.003426606422521321
153.0698    0.004196101501913754
161.0597    0.26256630608689896
162.063     0.011014030061343189
162.0682    0.057546437437457985
163.0754    0.06962637538176326
164.0261    0.034470204591186285
164.0789    0.008043390865735604
165.0339    0.010908611281830969
165.046     0.002203934613319886
165.0816    0.012230252721680346
166.0419    0.020524540282655032
167.0855    0.0024365380497612605
168.0934    0.012531626408991752
173.0709    0.016384620789116615
178.0418    0.030517124381571583
179.0702    0.036556814304013745
181.0756    0.008298504312155177
185.1195    0.00339578693227569
241.0525    0.002229669197730222
242.0562    0.002622881245310802
243.0588    0.020318911651559433
261.0695    0.04316347122709134


