PRECURSORMZ: 294.05540089600004
COMPOUNDNAME: Challenge-015
FORMULA: C12H13N3O4S
SMILES: CC(=O)NC1=CC=C(C=C1)S(=O)(=O)NC1=NOC(C)=C1
INCHIKEY: GXPIUNZCALHVBA-UHFFFAOYSA-N
PRECURSORTYPE: [M-H]-
IONMODE: negative
CHARGE: -1
PARENTMASS: 295.062676896
NUM PEAKS: 5
134.061     0.5484071359189712
150.0561    0.04970619908436154
178.0509    0.012110980654575521
198.0231    1.0
294.0555    0.3569835826216129


