PRECURSORMZ: 222.023038148
COMPOUNDNAME: Challenge-001
FORMULA: C10H9NO3S
SMILES: NC1=C2C=CC(=CC2=CC=C1)S(O)(=O)=O
INCHIKEY: UWPJYQYRSWYIGZ-UHFFFAOYSA-N
PRECURSORTYPE: [M-H]-
IONMODE: negative
CHARGE: -1
PARENTMASS: 223.030314148
NUM PEAKS: 5
107.0491    0.0010860376973480354
131.0502    0.0011904649440359137
157.0533    0.0010661611886605652
158.0611    0.2028119024766281
222.023     1.0


