PRECURSORMZ: 167.10397031999997
COMPOUNDNAME: Challenge-082
FORMULA: C6H10N6
SMILES: NC1=NC(NC2CC2)=NC(N)=N1
INCHIKEY: LVQDKIWDGQRHTE-UHFFFAOYSA-N
PRECURSORTYPE: [M+H]+
IONMODE: positive
CHARGE: 1
PARENTMASS: 166.09669431999998
NUM PEAKS: 18
56.0496     0.004306155568168658
58.0653     0.01298269792249197
60.0557     0.0926926785584896
68.0244     0.009990907689739974
70.04       0.0021699048768736187
81.0447     0.0022217200721114396
83.0604     0.0421429770771829
85.0508     0.15721972901853754
100.0869    0.004094747404043913
108.0556    0.031441845501519454
110.0461    0.005953270506768034
112.0617    0.0027879593163966823
125.0821    0.08387261894145312
127.0727    0.003941535657354234
139.0725    0.014201001406278353
140.093     0.005541343720409012
150.0775    0.003999439358174746
167.1039    1.0


