PRECURSORMZ: 239.03498273600002
COMPOUNDNAME: Challenge-045
FORMULA: C14H8O4
SMILES: OC1=CC=C2C(=O)C3=CC=CC=C3C(=O)C2=C1O
INCHIKEY: RGCKGOZRHPZPFP-UHFFFAOYSA-N
PRECURSORTYPE: [M-H]-
IONMODE: negative
CHARGE: -1
PARENTMASS: 240.042258736
NUM PEAKS: 7
155.0501    0.0028384371074692207
167.0503    0.01833818550638672
183.0452    0.0023201590684186688
210.0323    0.021005987051349727
211.04      0.06398663093026444
238.0271    0.017656450892471552
239.035     1.0


