PRECURSORMZ: 286.96895397599997
COMPOUNDNAME: Challenge-002
FORMULA: C10H8O6S2
SMILES: OS(=O)(=O)c1ccc2ccc(cc2c1)S(O)(=O)=O
INCHIKEY: VILFVXYKHXVYAB-UHFFFAOYSA-N
PRECURSORTYPE: [M-H]-
IONMODE: negative
CHARGE: -1
PARENTMASS: 287.97622997599996
NUM PEAKS: 6
143.0503    0.22367243610494422
159.0455    0.0015256295758900385
206.0044    0.002009469562176239
207.0122    0.8847401992633424
223.0072    0.004877061757248914
286.969     1.0


