PRECURSORMZ: 251.0372558
COMPOUNDNAME: Challenge-107
FORMULA: C12H10O4S
SMILES: Oc1ccc(cc1)S(=O)(=O)c1ccc(O)cc1
INCHIKEY: VPWNQTHUCYMVMZ-UHFFFAOYSA-N
PRECURSORTYPE: [M+H]+
IONMODE: positive
CHARGE: 1
PARENTMASS: 250.0299798
NUM PEAKS: 18
55.018      0.005150732099669601
65.0387     0.15826820656334686
68.9972     0.009024565047752047
69.0336     0.0016209315753840366
71.0128     0.011661572008094881
79.0179     0.005418630585292333
81.0335     0.006554431984002096
93.0334     0.045661343255772764
94.0413     0.006978412421989001
97.0284     0.0021656111468792835
109.0284    0.2836940640617189
110.0363    0.0065653300028963
111.0441    0.22984590579462838
121.0396    0.4613691748866846
122.0367    0.0032380951941719813
141.0002    0.002194297425982943
156.9954    0.9140642093009956
251.0372    1.0


