PRECURSORMZ: 221.06080356
COMPOUNDNAME: Challenge-046
FORMULA: C15H10O2
SMILES: OC(=O)C1=C2C=CC=CC2=CC2=CC=CC=C12
INCHIKEY: XGWFJBFNAQHLEF-UHFFFAOYSA-N
PRECURSORTYPE: [M-H]-
IONMODE: negative
CHARGE: -1
PARENTMASS: 222.06807956
NUM PEAKS: 3
177.071     1.0
193.0656    0.0024459495442323825
221.0608    0.23156380446337946


