PRECURSORMZ: 221.08193292800001
COMPOUNDNAME: Challenge-039
FORMULA: C12H14O4
SMILES: CC(C)COC(=O)C1=CC=CC=C1C(O)=O
INCHIKEY: RZJSUWQGFCHNFS-UHFFFAOYSA-N
PRECURSORTYPE: [M-H]-
IONMODE: negative
CHARGE: -1
PARENTMASS: 222.089208928
NUM PEAKS: 14
134.0372    1.0
135.0451    0.05269138438020735
147.0087    0.14598465159976853
147.0815    0.02355706212916675
149.0972    0.1769485195430428
151.0401    0.005304800089941224
159.0818    0.0026230678324164905
165.0192    0.02859457685791378
175.0762    0.004367476573448514
177.092     0.20999086207617812
179.035     0.05133513041477546
190.9988    0.013475332834821895
193.0869    0.004402609864251501
221.0819    0.6226160564259169


