PRECURSORMZ: 386.96444480800005
COMPOUNDNAME: Challenge-058
FORMULA: C12H4Cl2F6N4
SMILES: NC1=C(C(=NN1C1=C(Cl)C=C(C=C1Cl)C(F)(F)F)C#N)C(F)(F)F
INCHIKEY: JWKXVHLIRTVXLD-UHFFFAOYSA-N
PRECURSORTYPE: [M-H]-
IONMODE: negative
CHARGE: -1
PARENTMASS: 387.97172080800004
NUM PEAKS: 24
135.0112    0.00867932655078759
193.0019    0.0017962323038797736
203.9833    0.031045616519738063
227.0175    0.0019621550065839336
228.9786    0.010021347232157488
236.9849    0.01405199627880785
243.9897    0.0020613275317284676
246.0157    0.0017347978028148527
261.9809    0.006804040409634264
274.9881    0.002790147220557
276.0062    0.0030151471640847685
278.9753    0.0018731092277156384
281.9926    0.14487345265175017
295.0047    0.012834638959179611
296.0125    0.00584048933662179
298.9816    0.002438465488434888
305.9863    0.027889469123862115
310.9752    0.009832673506923385
316.019     0.008748495925874622
324.9848    0.03561748450238018
330.9817    0.049048497550817534
349.9799    0.0026246781173892286
350.9878    1.0
386.9645    0.014595823867555056


