PRECURSORMZ: 559.26027644
COMPOUNDNAME: Challenge-190
FORMULA: C33H35FN2O5
SMILES: CC(C)c1c(C(=O)Nc2ccccc2)c(c(-c2ccc(F)cc2)n1CC[C@@H](O)C[C@@H](O)CC(O)=O)-c1ccccc1
INCHIKEY: XUKUURHRXDUEBC-KAYWLYCHSA-N
PRECURSORTYPE: [M+H]+
IONMODE: positive
CHARGE: 1
PARENTMASS: 558.2530004399999
NUM PEAKS: 142
53.0388     0.0024517304519148585
55.0544     0.00648120702954785
57.0336     0.0013793440896283757
59.0493     0.0023349584868404805
65.0387     0.0018361839985262562
71.0129     0.007200199340096038
71.0492     0.004613972775331908
77.0386     0.002200226680536755
79.0542     0.0294932458740918
83.0491     0.023241264870607122
85.0648     0.0011111579355440623
89.0233     0.008043661363941051
91.0543     0.0016840250182002486
92.0495     0.028342076617719734
95.0491     0.009282810272991472
97.0284     0.005162605857001199
97.0647     0.004132135218654703
99.0805     0.001979075512223157
101.0597    0.015337949531054875
104.0494    0.004185213384597603
105.07      0.0010873858937278955
107.049     0.00395326745607004
109.0447    0.0055130301712133815
115.0543    0.008539847938125377
117.0574    0.0037445986131042918
120.0444    0.025311615030001892
122.0399    0.00679262879091709
125.0598    0.004585878115561067
128.062     0.0016668193960251525
129.07      0.00847381134605663
132.0443    0.0022412420554807307
133.0447    0.010290003825776153
135.0477    0.0020280007594985876
147.0603    0.0020940750625200455
154.0651    0.002339219824496997
167.0727    0.0011545820975925516
172.0555    0.0015759312861188435
179.0857    0.0016217453797954895
180.0804    0.0013158388452604592
185.0765    0.0034643920928428573
197.0961    0.0012624731333031269
198.071     0.001119506197700801
203.0855    0.008119021989067972
209.0762    0.015495312622855213
215.0854    0.0012975914580166791
218.0968    0.001430767687521012
221.0759    0.004060390131119097
222.0845    0.0014172671664499231
223.0917    0.007792209445122927
223.101     0.0010518480346654163
230.0963    0.016814592592550692
233.0761    0.03929246050579061
234.084     0.0018436130562106262
235.0791    0.01967776839403571
236.0871    0.0042710623684476985
237.0947    0.017616850686688165
238.1026    0.07902517752902377
242.0969    0.0011431981037424539
248.0871    0.05086066764602011
249.0948    0.09767920197590307
250.1027    1.0
251.11      0.005541836625216673
252.1184    0.03159351024672579
256.0749    0.001184105059697381
259.0929    0.003295003920996308
261.0947    0.013056469889029866
262.1028    0.058663808553560584
263.1105    0.004094975788625585
264.0819    0.01801660564091744
264.1181    0.021376316842899375
264.1309    0.0011624259757567598
274.1024    0.011946872244154284
275.1105    0.012519649763297776
275.1228    0.0014581128421066922
276.0829    0.036564775443532656
276.1184    0.39336410264242533
277.0885    0.0012273500947204855
277.1263    0.01958426408678497
278.0972    0.006144537785337567
278.1341    0.00824479273023338
279.1418    0.013999757518574059
280.1497    0.02890276777651886
287.1095    0.0016643069038006794
288.1184    0.01606790630110423
289.1258    0.007237924434415844
290.1342    0.02426054478373617
291.1423    0.0011046669378084167
292.1496    0.3417094308870427
294.0926    0.004676954780230938
294.1288    0.005967560284257619
294.1653    0.04954356548384378
300.1186    0.005226808753994297
301.1258    0.003868865630030288
302.0975    0.01460043642885574
302.1339    0.05505763742012584
303.1054    0.0012562508261055579
303.1416    0.006857180514222781
304.1141    0.0017530502032714627
304.1495    0.004801141661382419
306.129     0.030271797920580358
308.1454    0.001285142129752452
316.1126    0.0010095363457219468
316.1494    0.01568200540812773
318.1289    0.015061108713323034
318.1653    0.057071953817658866
320.1081    0.007575875851018357
320.1446    0.03674703719186145
326.1349    0.0010882815288548182
334.1233    0.0020640005777317954
334.1972    0.0016801785010235697
336.1392    0.002316239712687793
336.1759    0.014182254960357302
342.1294    0.00466122459908072
344.1443    0.020413428945682842
344.1814    0.003969073059125683
346.1245    0.0017682760004291505
360.1391    0.007172165960623354
360.2126    0.0019148019071937223
361.1475    0.004819921715833264
362.1551    0.12709718621611885
362.1878    0.009562875377180235
369.1399    0.0022443296397340697
370.1239    0.004229849011001982
378.2237    0.007466221828268469
379.1578    0.013223609545320928
380.1657    0.1789585422755807
380.2006    0.014075433972929947
398.1761    0.02644867096232129
402.1864    0.008430127921208244
404.2025    0.03188586912149884
406.1446    0.00437598838050125
406.1819    0.006042755923966423
413.202     0.004332865906074461
422.2127    0.11562497701988818
424.1567    0.007432376248208965
430.1823    0.008237863342672451
440.2234    0.8519668807328897
448.1924    0.02071101078740658
466.2027    0.21627320944154038
467.2065    0.004145612170380347
541.2485    0.0037423218143342726
559.2605    0.56332602306515


