PRECURSORMZ: 267.108780928
COMPOUNDNAME: Challenge-101
FORMULA: C11H14N4O4
SMILES: CN1C=NC2=C1C(=O)N(CCCC(O)=O)C(=O)N2C
INCHIKEY: WKASGTGXOGALBG-UHFFFAOYSA-N
PRECURSORTYPE: [M+H]+
IONMODE: positive
CHARGE: 1
PARENTMASS: 266.101504928
NUM PEAKS: 34
56.0497     0.002196722181027364
69.0448     0.006321523588910595
81.0448     0.0031653176511107534
83.024      0.004936296117603591
83.0604     0.0049629046456295565
87.044      0.005091028123150546
108.0557    0.006380117573072634
109.076     0.0013880321932671414
110.0713    0.017941552064831223
121.0635    0.0011271494542599621
122.0712    0.006818744116714217
135.0665    0.001210927807110697
136.0505    0.00833581531850488
136.0868    0.001019000538056117
137.0822    0.002670691127814304
138.0662    0.1376764913073601
149.0824    0.005112623029019789
150.0663    0.0013169840810230405
150.1026    0.019061551657928555
154.0612    0.010132784692902927
162.0898    0.0013301866193690757
163.0615    0.004586359823302516
165.077     0.014820732126891143
178.0977    0.001358233838970449
180.0639    0.00868782972285932
181.072     0.2426380589870812
193.0721    0.6285557026137321
205.1084    0.028222115087333303
207.0877    0.008974601644104761
211.0826    0.09356537926780045
221.1033    1.0
225.0984    0.007508582194883853
249.0983    0.889145471700101
267.1088    0.39062278269835327


