PRECURSORMZ: 469.1589544239999
COMPOUNDNAME: Challenge-013
FORMULA: C20H22N8O6
SMILES: CN(CC1=Nc2c(N)nc(N)nc2NC1=O)c1ccc(cc1)C(=O)NC(CCC(O)=O)C(O)=O
INCHIKEY: HODZDDDNGRLGSI-UHFFFAOYSA-N
PRECURSORTYPE: [M-H]-
IONMODE: negative
CHARGE: -1
PARENTMASS: 470.1662304239999
NUM PEAKS: 22
120.045     0.030780787475758256
146.0472    0.07864633358844979
147.0314    0.09347386245429018
149.0476    0.019205075331043753
149.0724    0.02642369928642583
150.0559    0.11050301654654862
161.0722    0.06900786279735974
162.0423    0.03920225313811592
189.0532    0.23095032887989891
190.0609    0.23389474689178466
191.0683    0.016973024976407413
191.119     0.029127339128445975
234.1017    0.05511616890982044
235.1093    0.08797373367206643
237.0839    0.017532742421389077
278.0926    0.018216783235124864
279.0988    0.11271775605237108
340.1165    0.3258274192304646
425.1694    0.09139708516780246
451.1483    0.02937336301007334
456.1617    0.020536961547359074
469.159     1.0


