PRECURSORMZ: 223.970551912
COMPOUNDNAME: Challenge-119
FORMULA: C9H6BrNO
SMILES: BrC1=CC2=C(NC(=O)C=C2)C=C1
INCHIKEY: YLAFBGATSQRSTB-UHFFFAOYSA-N
PRECURSORTYPE: [M+H]+
IONMODE: positive
CHARGE: 1
PARENTMASS: 222.963275912
NUM PEAKS: 4
127.0418    0.01388754827761238
145.0524    0.0058134492435322465
205.9602    0.1043324271433068
223.9708    1.0


