PRECURSORMZ: 216.06998834
COMPOUNDNAME: Challenge-007
FORMULA: C9H15NO3S
SMILES: C[C@H](CS)C(=O)N1CCC[C@H]1C(O)=O
INCHIKEY: FAKRSMQSSFJEIM-RQJHMYQMSA-N
PRECURSORTYPE: [M-H]-
IONMODE: negative
CHARGE: -1
PARENTMASS: 217.07726434
NUM PEAKS: 6
126.092     0.024682254778306004
130.033     0.033870607143309105
138.0926    0.05982679563487879
170.0823    0.045245738438629717
182.0823    1.0
216.0704    0.16475084471929166


