PRECURSORMZ: 423.23882749199987
COMPOUNDNAME: Challenge-044
FORMULA: C23H36O7
SMILES: CC[C@H](C)C(=O)O[C@H]1C[C@H](O)C=C2C=C[C@H](C)[C@H](CC[C@@H](O)C[C@@H](O)CC(O)=O)[C@@H]12
INCHIKEY: TUZYXOIXSAXUGO-PZAWKZKUSA-N
PRECURSORTYPE: [M-H]-
IONMODE: negative
CHARGE: -1
PARENTMASS: 424.24610349199986
NUM PEAKS: 44
127.0065    0.020544690475357032
129.0037    0.2708419975797142
141.071     0.04705135617845231
142.0117    0.001338182676541113
143.0867    0.007099432957548675
146.1521    0.0011303144059142992
155.038     0.0020571299970557726
157.0352    0.03580202024982585
157.0539    0.005534554074200921
158.0431    0.006237005471491535
159.0508    0.13818723255800366
161.0968    0.0018305810752779184
165.071     0.002703146680816503
171.1182    0.0021300606338097005
177.071     0.0016584785191413342
179.0866    0.13381296539307502
180.0579    0.001684302494188501
180.0905    0.007869340898023332
187.0459    0.004200789948523392
187.0647    0.004435488641894077
193.0657    0.010043709777992859
195.0815    0.0268333193494381
197.0973    0.0016902429903495413
199.1128    0.019863718144764394
216.0816    0.0011970590714592102
223.0774    0.0012520209347012315
252.0074    0.0010588075244386368
267.1389    0.0026639688631593943
270.1161    0.0017137840474505232
272.1447    0.011068862673353864
276.1545    0.0010989672422876526
284.13      0.0015189995968808764
285.1499    0.009349629079838256
293.0663    0.009302056015540338
299.1552    0.005718218505097216
303.1602    0.27559454179357523
321.1707    0.5234875680880278
322.1061    0.006174630261800612
337.1289    0.027054786937722834
365.1357    0.0058387467536538595
387.2193    0.0012080318061037764
395.1444    0.0076765938903518936
405.2269    0.0027062151189162138
423.239     1.0


