PRECURSORMZ: 497.946203044
COMPOUNDNAME: Challenge-072
FORMULA: C8H2F17NO2S
SMILES: NS(=O)(=O)C(F)(F)C(F)(F)C(F)(F)C(F)(F)C(F)(F)C(F)(F)C(F)(F)C(F)(F)F
INCHIKEY: RRRXPPIDPYTNJG-UHFFFAOYSA-N
PRECURSORTYPE: [M-H]-
IONMODE: negative
CHARGE: -1
PARENTMASS: 498.953479044
NUM PEAKS: 5
118.992     0.00650798590500146
168.9892    0.013720930484997574
218.9863    0.004849808740913095
477.9399    0.006205827358896168
497.9466    1.0


