PRECURSORMZ: 492.136543676
COMPOUNDNAME: Challenge-061
FORMULA: C23H28ClN3O5S
SMILES: COC1=C(C=C(Cl)C=C1)C(=O)NCCC1=CC=C(C=C1)S(=O)(=O)NC(=O)NC1CCCCC1
INCHIKEY: ZNNLBTZKUZBEKO-UHFFFAOYSA-N
PRECURSORTYPE: [M-H]-
IONMODE: negative
CHARGE: -1
PARENTMASS: 493.14381967599996
NUM PEAKS: 21
116.0134    0.013000836242860046
126.9953    0.2209094731669982
132.0816    0.0033796495339245302
151.9909    0.056110084836916894
154.0094    0.01711009586083407
169.0205    0.005479973479604966
170.0014    1.0
182.0014    0.005106735140940781
184.0438    0.010973506377336085
194.0157    0.0013120351253498126
196.0075    0.003074460261140849
196.0439    0.0076247395599567235
207.0235    0.003039010493194306
224.0498    0.026902578494227402
225.0339    0.008403689547594188
250.0294    0.0026763078696595026
273.0572    0.0011028011773543543
367.0523    0.20910528313356422
378.0321    0.04730921930193407
460.1104    0.049508616766118146
492.1365    0.546201362871132


