PRECURSORMZ: 288.253319916
COMPOUNDNAME: Challenge-196
FORMULA: C16H33NO3
SMILES: CCCCCCCCCCCC(=O)N(CCO)CCO
INCHIKEY: AOMUHOFOVNGZAN-UHFFFAOYSA-N
PRECURSORTYPE: [M+H]+
IONMODE: positive
CHARGE: 1
PARENTMASS: 287.246043916
NUM PEAKS: 22
55.0544     0.0022712427487350754
57.0701     0.04320010312303374
67.0543     0.009886208326470353
68.0495     0.002753342374267017
69.07       0.002625561362189135
70.0652     0.1544751507311388
71.0856     0.027260463502570192
73.0284     0.002492129534387829
81.0699     0.011290827126188894
83.0855     0.0071058460958790684
85.1012     0.013068929114072453
88.0757     0.55955259079697
95.0855     0.023919677286810527
97.1012     0.004105077674094438
106.0862    1.0
109.1011    0.010480866656963767
123.1167    0.0018594443414223277
183.1743    0.0022052048909304107
226.2162    0.0030427396413923945
227.2005    0.1940557541950742
270.2427    0.037819531236243854
288.2533    0.4709715374408994


