PRECURSORMZ: 148.075689908
COMPOUNDNAME: Challenge-103
FORMULA: C9H9NO
SMILES: NC(=O)\C=C\C1=CC=CC=C1
INCHIKEY: APEJMQOBVMLION-VOTSOKGWSA-N
PRECURSORTYPE: [M+H]+
IONMODE: positive
CHARGE: 1
PARENTMASS: 147.068413908
NUM PEAKS: 10
77.0388     0.004398771936048674
79.0542     0.002781577342938456
95.0491     0.0010385099187470554
102.0462    0.0010903686442228755
103.0542    0.21542659537757003
105.0698    0.05902355637857518
106.0651    0.012936695836382217
130.0652    0.0025771416059939736
131.0491    1.0
148.0756    0.39499094604554297


