PRECURSORMZ: 496.39964979599995
COMPOUNDNAME: Challenge-208
FORMULA: C29H53NO5
SMILES: CCCCCCCCCCC[C@@H](C[C@@H]1OC(=O)[C@H]1CCCCCC)OC(=O)[C@H](CC(C)C)NC=O
INCHIKEY: AHLBNYSZXLDEJQ-FWEHEUNISA-N
PRECURSORTYPE: [M+H]+
IONMODE: positive
CHARGE: 1
PARENTMASS: 495.39237379599996
NUM PEAKS: 89
55.0545     0.10618316451726548
57.0701     0.08076434209504017
58.0289     0.008225559826456758
67.0543     0.27138854122595396
69.07       0.5233185136686965
71.0493     0.0032864167134907503
71.0856     0.06222384381468731
72.0445     0.010609997778522477
79.0543     0.04508784570579742
81.0699     0.4228424132396455
83.0492     0.014091762704859496
83.0855     0.18861780293409292
85.0648     0.004518967193818416
85.1012     0.0319816931504403
86.0965     0.16206276416098783
91.0542     0.02864944081198519
93.0699     0.05812626633081917
95.0855     0.5078044645509091
97.0649     0.015846447531759407
97.1012     0.17594343542575847
99.0806     0.003352442126063952
105.0699    0.037526830334939566
107.0856    0.043241790072236774
108.0041    0.002955784905934518
109.0648    0.0780217757675319
109.1012    0.23894193014489717
111.1169    0.0738566706547506
113.0961    0.010938129898089044
114.0914    0.539079467064117
119.0856    0.02653593058126098
121.1013    0.04930218746133671
123.0806    0.0158700503548926
123.1168    0.11191117551012413
125.1323    0.020689953543659243
127.1117    0.003024610449765375
132.1019    0.1033719889650793
133.1012    0.028976611513094188
135.1124    0.003259472961217521
135.1167    0.026829643920046758
137.096     0.0039998733331182154
137.1324    0.06498884724544898
142.0863    0.18818246063877725
147.117     0.006317024010885179
149.1324    0.019952052859748215
151.1482    0.04087570319497981
160.0969    0.5792436845473075
161.1327    0.012882562675319913
163.1482    0.012253410436690084
165.1637    0.026986727678281985
167.1431    0.02165018224588193
175.1484    0.01917942093405769
177.1639    0.014594788859587659
179.1431    0.08790384757864059
179.1795    0.019369529416310236
181.1588    0.012412537209147631
189.1641    0.02608400381755234
191.1794    0.03769702543738982
193.1589    0.02329322235439723
193.1952    0.1306721991491807
198.2092    0.0025852301969279436
203.18      0.011574408651035565
205.1953    0.011778782179652215
207.1747    0.010813794456064589
207.2109    0.010817531970318369
211.169     0.0030420722125008796
211.2058    0.018547348386863012
217.195     0.02374198845492663
219.2106    0.004669008561851986
221.1901    0.013416618610765952
223.1206    0.002642458630614436
231.2112    0.01276222913762507
235.2057    0.013112365722139129
238.0704    0.002817977587773449
241.0062    0.0029976306442999873
245.2261    0.003233598786978332
246.3037    0.0028709397270545015
249.2213    0.004116000665061218
291.3048    0.10690190893840955
295.2626    0.0033117380721168397
301.2893    0.15175215209015078
319.2998    1.0
329.076     0.0029273870082442235
337.3103    0.34550008391380477
370.2957    0.004908257545016767
409.216     0.002798316580316267
447.3471    0.048072160704460146
448.3503    0.01650221904393304
468.4037    0.004654887728256515
496.4003    0.01947439613456902


