PRECURSORMZ: 327.171416628
COMPOUNDNAME: Challenge-012
FORMULA: C19H24N2O3
SMILES: CC(CCC1=CC=CC=C1)NCC(O)C1=CC(C(N)=O)=C(O)C=C1
INCHIKEY: SGUAFYQXFOLMHL-UHFFFAOYSA-N
PRECURSORTYPE: [M-H]-
IONMODE: negative
CHARGE: -1
PARENTMASS: 328.17869262799996
NUM PEAKS: 20
106.0413    0.022353393300834197
118.029     0.011507496974345796
131.0376    0.04916848452144123
132.0453    0.05096025886303827
133.0531    0.015135657777029599
146.0247    0.005533943894087913
149.0482    0.06045778060634382
157.0408    0.04086781166570962
158.0488    0.0030215720494477234
159.0562    0.006406455869380379
175.0513    0.08922686322176869
176.0591    0.14966267794792804
177.0669    0.006878722293346749
185.0719    0.0043931760368964585
187.0877    0.013018185804909549
199.0878    0.0032246106499140216
266.1554    0.061683107382829526
291.1503    0.12095220341104848
309.1608    0.4607301575206314
327.1714    1.0


