PRECURSORMZ: 311.200556072
COMPOUNDNAME: Challenge-161
FORMULA: C21H26O2
SMILES: CCC12CCC3C(CCC4=CC(=O)CCC34)C1C=CC2(O)C#C
INCHIKEY: SIGSPDASOTUPFS-UHFFFAOYSA-N
PRECURSORTYPE: [M+H]+
IONMODE: positive
CHARGE: 1
PARENTMASS: 310.193280072
NUM PEAKS: 179
53.0024     0.006792298241343472
53.0388     0.004189419131243139
55.018      0.008881045683616159
55.0544     0.007502990773485465
57.0336     0.005447987037959236
65.0388     0.0034135653771569046
67.0543     0.028782190126522535
69.0336     0.0044241408351581735
69.0699     0.006575408351086472
71.0492     0.00292342381718035
77.0386     0.0058394318347562675
79.0542     0.05122050534599987
81.0335     0.07599817916311831
81.0699     0.048580583608803116
83.0491     0.0745347601425666
91.0542     0.0625176166835015
93.0698     0.043286416180462195
95.0492     0.015745666350028095
95.0855     0.03427934601299126
97.0649     0.006061929812223256
97.1012     0.0011410480286896338
103.0542    0.007784088503122514
105.0335    0.01953642453803662
105.0699    0.053628129075865234
107.0491    0.05264445030437667
107.0855    0.027049750071379875
109.0648    0.2187176453530772
109.1012    0.01844896249071071
111.0805    0.002247299141485192
115.0542    0.010312098449502793
116.0621    0.0013708256082518853
117.0699    0.03924732040686901
119.049     0.0043775906933022765
119.0855    0.05232529156172236
121.0648    0.019095294735124325
121.1012    0.01976120227608325
123.0804    0.016133980925662657
123.1169    0.0036651453920791984
125.096     0.0010316883934711372
128.0621    0.010866173906142087
129.0699    0.041805535246305765
130.0777    0.004707575590236669
131.049     0.00358729458629759
131.0855    0.05268421069086063
133.0648    0.037373873368013344
133.1011    0.032632396979584984
135.0804    0.044318944200623385
135.1167    0.007806145534962767
137.096     0.005436852117735071
141.0698    0.022266607305188656
142.0777    0.011038296603754147
143.0855    0.03941480078142702
144.057     0.002597589075028236
144.0932    0.0010631716858750552
145.0647    0.014097131699029259
145.1011    0.04548239594572207
146.0725    0.0025100736630419146
147.0804    0.0335872266423129
147.1168    0.01748682536730611
149.0961    0.03675607450177094
149.1324    0.004692704524704124
151.1115    0.0011298179249789452
153.0697    0.009121646322060554
154.0777    0.00601323146419999
155.0855    0.025796849064434545
156.0932    0.0028963398590925336
157.0648    0.007375685568734797
157.1012    0.030577319728357782
158.0726    0.0027497851484292834
159.0804    0.024337384414745682
159.1169    0.0190985495460537
160.0884    0.00227541309323611
161.0961    0.02545367235534772
161.1323    0.014792968642628385
163.1116    0.01721911213834299
165.0701    0.0068419004455639604
166.0778    0.005242072654932714
167.0855    0.017018117116485765
168.0933    0.010659304592852404
169.1012    0.02151655601444486
170.109     0.0014648846914742588
171.0804    0.007182366359908605
171.1167    0.03232760862184712
172.0883    0.002267783711174114
173.0961    0.015735252657522944
173.1326    0.01833509595609785
174.104     0.001313654382229147
175.1117    0.02181344723819929
175.1484    0.0057212828170993745
177.1273    0.0014021781200930206
178.0779    0.003113069562506361
179.0854    0.007624908438129062
180.0935    0.0024012309592786785
181.101     0.02417445427515314
182.1089    0.0038011424742332885
183.0808    0.004292792266854008
183.1169    0.031129753076392194
184.088     0.0012029095564344283
185.096     0.00913920960994767
185.1325    0.01907064221211499
187.1118    0.010487383096106164
187.1479    0.00458734801286596
188.1195    0.0028068325585345944
189.1274    0.008624930136868592
189.1645    0.0021412964653279524
191.0855    0.006446834807031654
192.0931    0.002268192303701625
193.1012    0.010025089283658058
194.1089    0.003791850089630343
195.0807    0.002321194028704987
195.1169    0.0175912950476357
196.1247    0.002488122648580958
197.0962    0.006405375047081003
197.1325    0.01317431386790278
199.1117    0.011369387331601066
199.1479    0.007406176786100326
201.1274    0.035350663238534086
201.1637    0.01145742973508594
203.0851    0.002144892543879742
203.1067    0.0014796373580357645
203.1431    0.009987833847953558
204.0934    0.0037526809241521025
205.1013    0.008336793472325781
206.1092    0.002461003867266365
207.1169    0.008159021673481082
209.0961    0.006410066122652543
209.1324    0.011330579553831818
211.1115    0.0048356469059764205
211.148     0.007657534706220734
213.1273    0.007343556112011804
213.1637    0.016448992608932626
214.1353    0.0012653166480653887
215.1075    0.001036004925892459
215.1432    0.007549299474302378
217.1011    0.0014652762593131239
217.1588    0.0025297100936964574
218.1091    0.0037956543336933077
219.117     0.007766413780909715
219.1742    0.007875874016561122
220.1248    0.0028562621943201676
221.1325    0.007092879953286731
223.1117    0.006972089013491726
223.1479    0.012839722244990593
224.1193    0.0011671816996111932
225.1275    0.0031212615331431687
225.1638    0.012886184168005323
227.1429    0.005088434126093636
228.1507    0.0010705990932217471
229.1585    0.004251468704412526
230.1662    0.007623967437156613
231.1167    0.0028737821466361816
231.1743    0.019624482418511172
232.1245    0.001232093742021612
233.1325    0.006869892129096418
235.1481    0.012336894196574608
237.1271    0.006390462967525809
237.1637    0.004095573630478328
239.1429    0.00571627136784149
239.1796    0.0034586366926490242
241.159     0.007117130848413906
243.1744    0.018204526654223993
246.1401    0.0034972719019833575
247.1478    0.005381472353267614
249.1634    0.005559313798565865
251.1436    0.004612159948868978
251.1794    0.004992773174439541
253.1587    0.005997767629962758
255.1381    0.002428465044166376
255.1742    0.0010424193642646958
264.151     0.0030978788971369547
265.1587    0.0068495538169599576
265.1951    0.003965226423406359
267.175     0.0011953351176857913
269.1897    0.0023849406537926176
275.1795    0.0077536553244682786
283.1696    0.0023364117788063307
283.2055    0.002665187148997351
293.19      0.03336627326841582
311.2005    1.0


