PRECURSORMZ: 179.071368244
COMPOUNDNAME: Challenge-035
FORMULA: C10H12O3
SMILES: CCCOC(=O)c1ccc(O)cc1
INCHIKEY: QELSKZZBTMNZEB-UHFFFAOYSA-N
PRECURSORTYPE: [M-H]-
IONMODE: negative
CHARGE: -1
PARENTMASS: 180.078644244
NUM PEAKS: 3
136.0166    0.2404468350562988
137.0244    0.22716737565733527
179.0714    1.0


