PRECURSORMZ: 311.039337648
COMPOUNDNAME: Challenge-179
FORMULA: C14H9ClF2N2O2
SMILES: FC1=CC=CC(F)=C1C(=O)NC(=O)NC1=CC=C(Cl)C=C1
INCHIKEY: QQQYTWIFVNKMRW-UHFFFAOYSA-N
PRECURSORTYPE: [M+H]+
IONMODE: positive
CHARGE: 1
PARENTMASS: 310.032061648
NUM PEAKS: 8
93.0573     0.0011563326135273933
113.0198    0.0013182570751285585
126.0104    0.0019064055362015921
128.0261    0.007039549093499264
140.0306    0.007784716824149893
141.0145    0.4704842731397918
158.0412    1.0
311.0393    0.08037602316638964


