PRECURSORMZ: 223.096484928
COMPOUNDNAME: Challenge-141
FORMULA: C12H14O4
SMILES: CCOC(=O)C1=CC=CC=C1C(=O)OCC
INCHIKEY: FLKPEMZONWLCSK-UHFFFAOYSA-N
PRECURSORTYPE: [M+H]+
IONMODE: positive
CHARGE: 1
PARENTMASS: 222.089208928
NUM PEAKS: 8
65.0385     0.0031092092886195314
93.0335     0.001692197868983241
121.0284    0.01902800823102676
149.0233    1.0
163.039     0.013143769388492441
167.0339    0.001485383766227072
177.0546    0.29116253396160635
181.0495    0.012214328987023407


