PRECURSORMZ: 233.11069551199998
COMPOUNDNAME: Challenge-129
FORMULA: C13H16N2S
SMILES: C1CCC(CC1)NC1=NC2=CC=CC=C2S1
INCHIKEY: UPWPIFMHSFSVLE-UHFFFAOYSA-N
PRECURSORTYPE: [M+H]+
IONMODE: positive
CHARGE: 1
PARENTMASS: 232.103419512
NUM PEAKS: 7
55.0544     0.031359052537366996
83.0855     0.045394539460581494
92.0496     0.0024855567492783107
109.0107    0.0035319116367292275
124.0216    0.006100558149764463
151.0325    0.7118940464396489
233.1107    1.0


