PRECURSORMZ: 368.110418652
COMPOUNDNAME: Challenge-189
FORMULA: C18H16F3NO4
SMILES: COC=C(C(=O)OC)C1=CC=CC=C1COC1=CC=CC(=N1)C(F)(F)F
INCHIKEY: IBSNKSODLGJUMQ-UHFFFAOYSA-N
PRECURSORTYPE: [M+H]+
IONMODE: positive
CHARGE: 1
PARENTMASS: 367.10314265200003
NUM PEAKS: 17
91.0543     0.011101862099139192
102.0464    0.005277888449498502
103.0543    0.005249957511826638
115.0543    0.06580837733087463
117.0699    0.10361841051010898
129.0699    0.005317580324166449
130.0414    0.013776436526057064
131.0492    0.0068207494016401535
131.0855    0.005311504698514361
145.0648    1.0
146.0728    0.014594568509707175
147.0805    0.0019135588185577354
162.9955    0.0011427418570591626
173.0598    0.016668205413103168
177.0911    0.01749217608674034
190.0631    0.001313389332867917
205.086     0.40705538095317456


