PRECURSORMZ: 100.112075416
COMPOUNDNAME: Challenge-086
FORMULA: C6H13N
SMILES: NC1CCCCC1
INCHIKEY: PAFZNILMFXTMIY-UHFFFAOYSA-N
PRECURSORTYPE: [M+H]+
IONMODE: positive
CHARGE: 1
PARENTMASS: 99.10479941599999
NUM PEAKS: 5
53.0388     0.008363068201706044
55.0544     0.25357698972711
58.029      0.0010879346348242884
83.0855     1.0
100.1121    0.32963259081291596


