PRECURSORMZ: 382.1680660679999
COMPOUNDNAME: Challenge-118
FORMULA: C22H24ClN3O
SMILES: CN1CCCC(CC1)N1N=C(Cc2ccc(Cl)cc2)c2ccccc2C1=O
INCHIKEY: MBUVEWMHONZEQD-UHFFFAOYSA-N
PRECURSORTYPE: [M+H]+
IONMODE: positive
CHARGE: 1
PARENTMASS: 381.1607900679999
NUM PEAKS: 16
55.0544     0.0017436969004897144
58.0653     0.13393793018969935
69.07       0.0038886127773922097
70.0652     0.009371917352890719
79.0543     0.012874170677221694
81.0699     0.03929494066263077
82.0651     0.0015788788473385424
84.0808     0.032702858216320005
110.0964    0.003371372481137503
112.1121    1.0
125.0152    0.0035240234195618907
159.0553    0.0069909904527562464
271.0632    0.02095954654518248
309.0787    0.0027284357936458426
351.1261    0.011279268021720898
382.1681    0.9305110419688392


