PRECURSORMZ: 487.21329850399997
COMPOUNDNAME: Challenge-024
FORMULA: C23H32N6O4S
SMILES: CCCC1=NC(C)=C2N1NC(=NC2=O)C1=CC(=CC=C1OCC)S(=O)(=O)N1CCN(CC)CC1
INCHIKEY: SECKRCOLJRRGGV-UHFFFAOYSA-N
PRECURSORTYPE: [M-H]-
IONMODE: negative
CHARGE: -1
PARENTMASS: 488.22057450399996
NUM PEAKS: 16
132.0326    0.012264870395597193
133.0404    0.008787838647410937
135.0195    0.009489132265666266
137.1542    0.008056018451135943
160.1987    0.009514480227771882
163.0148    0.011064794297199131
164.0229    0.04103944088391887
204.0242    0.008449865819336079
229.0734    0.01748900361794461
282.1123    0.39317114998525454
285.0994    0.40043892858252556
286.1072    0.041193164008946466
288.086     0.01412753677226137
310.1432    0.01173147295645002
459.1822    0.6863336871145678
487.2132    1.0


