PRECURSORMZ: 513.2296001999999
COMPOUNDNAME: Challenge-038
FORMULA: C33H30N4O2
SMILES: CCCC1=Nc2c(C)cc(C3=Nc4ccccc4N3C)cc2N1Cc1ccc(-c2ccccc2C(O)=O)cc1
INCHIKEY: RMMXLENWKUUMAY-UHFFFAOYSA-N
PRECURSORTYPE: [M-H]-
IONMODE: negative
CHARGE: -1
PARENTMASS: 514.2368762
NUM PEAKS: 19
260.1074    0.005175087713745528
272.1067    0.027617999695286468
274.1225    0.015497103514786828
285.1139    0.002545847440297713
287.1303    1.0
288.1387    0.0049820042144798505
299.1294    0.0028494749276925953
301.1461    0.03630388689728702
302.1534    0.022013225560314504
303.1615    0.22801245167482287
306.1116    0.0028632056546391703
315.1617    0.0266864823553177
334.1435    0.045296116702180374
425.1785    0.004670153805862725
426.1862    0.008788440993093056
439.1929    0.015853559392298194
440.2018    0.034079353982484864
469.2397    0.41917822607696215
513.2295    0.6335019963080635


