PRECURSORMZ: 309.042735104
COMPOUNDNAME: Challenge-140
FORMULA: C14H12O6S
SMILES: COC1=CC(O)=C(C=C1S(O)(=O)=O)C(=O)C1=CC=CC=C1
INCHIKEY: CXVGEDCSTKKODG-UHFFFAOYSA-N
PRECURSORTYPE: [M+H]+
IONMODE: positive
CHARGE: 1
PARENTMASS: 308.035459104
NUM PEAKS: 37
55.0181     0.003616060793813447
68.9972     0.007394012989124593
77.0387     0.004629786181269754
79.0179     0.007833691021320293
95.0492     0.012731621652718366
97.0285     0.021372041781702114
105.0335    0.11527721134093291
107.0128    0.005736260162777294
119.0128    0.0028583258473640115
121.0283    0.008025562311984232
122.0362    0.0017031007848248823
123.0076    0.0034136560285775866
125.0233    0.006733213017646
128.0621    0.0015087716834274953
133.9998    0.003551374456378181
135.0077    0.12955844214772685
141.0182    0.007526329635093432
141.0699    0.016269572681244637
149.0237    0.003264674885657783
151.039     0.018856026849016418
152.0105    0.006496182830868591
153.0697    0.0018387935444385687
155.0341    0.001183341336973414
167.0341    0.005227385305316812
169.0649    0.0029298184299072893
183.0288    0.0031883477083750845
183.0441    0.0037795997387698307
197.0598    0.01526619170599614
198.9696    0.11050195517493401
211.039     0.03397939544338095
212.0469    0.010919755990711094
227.0702    0.005014149967508282
228.0413    0.00869524821457606
230.9959    1.0
243.0653    0.027322428576290175
291.0326    0.004370716724618783
309.0429    0.8989606161488428


