PRECURSORMZ: 275.064900872
COMPOUNDNAME: Challenge-051
FORMULA: C11H11F3N2O3
SMILES: CC(C)C(=O)Nc1ccc(c(c1)C(F)(F)F)[N+]([O-])=O
INCHIKEY: MKXKFYHWDHIYRV-UHFFFAOYSA-N
PRECURSORTYPE: [M-H]-
IONMODE: negative
CHARGE: -1
PARENTMASS: 276.072176872
NUM PEAKS: 22
134.0046    0.001455442920771549
154.0109    0.005466852769756635
155.0187    0.0011981502188966047
160.0379    0.033396945357702615
161.9997    0.0014305357199938496
165.0105    0.0013016677081478692
171.0136    0.0014277824859269307
173.0094    0.0013828367173108515
174.0171    0.0015465315850506107
175.0251    0.007493607309941348
182.0059    0.027392214602592616
186.0171    0.011836066276158307
190.0118    0.002304870189046339
191.0199    0.001499566356409571
202.0121    0.24230694847750742
205.023     0.1243324448482357
206.007     0.007975170246120466
218.0432    0.0014157954013621712
229.0721    0.013062285987842462
232.0101    0.01484696098624629
259.0338    0.0016374041233546699
275.065     1.0


