PRECURSORMZ: 298.12601122800004
COMPOUNDNAME: Challenge-117
FORMULA: C18H19NOS
SMILES: CNCC[C@H](Oc1cccc2ccccc12)c1cccs1
INCHIKEY: ZEUITGRIYCTCEM-KRWDZBQOSA-N
PRECURSORTYPE: [M+H]+
IONMODE: positive
CHARGE: 1
PARENTMASS: 297.11873522800005
NUM PEAKS: 12
97.0107     0.04043754487458028
123.0263    0.12444592392222374
124.0341    0.053472287750273476
129.0698    0.03859312924306267
154.0687    0.11270768509101894
155.0858    0.06780864100452269
157.0649    0.1285364858247778
165.0696    0.01505537557184146
183.0805    0.17891680092636278
239.0524    0.018737838479081313
267.0836    0.07959617634598501
298.1262    1.0


