PRECURSORMZ: 349.111518804
COMPOUNDNAME: Challenge-059
FORMULA: C18H22O5S
SMILES: CC12CCC3C(CCC4=CC(OS(O)(=O)=O)=CC=C34)C1CCC2=O
INCHIKEY: JKKFKPJIXZFSSB-UHFFFAOYSA-N
PRECURSORTYPE: [M-H]-
IONMODE: negative
CHARGE: -1
PARENTMASS: 350.118794804
NUM PEAKS: 4
145.0657    0.0049781716738479245
269.1546    0.5954198272776919
285.15      0.0018899934079075196
349.1113    1.0


