PRECURSORMZ: 223.07535556
COMPOUNDNAME: Challenge-166
FORMULA: C15H10O2
SMILES: O=C1C=C(OC2=CC=CC=C12)C1=CC=CC=C1
INCHIKEY: VHBFFQKBGNRLFZ-UHFFFAOYSA-N
PRECURSORTYPE: [M+H]+
IONMODE: positive
CHARGE: 1
PARENTMASS: 222.06807956
NUM PEAKS: 16
65.0385     0.0010165937127690056
77.0389     0.0029967538343211326
93.0334     0.0020671109879503535
95.0491     0.008467373160129093
103.0541    0.009547431815439836
105.0334    0.0018257002725874318
105.0446    0.001056276768613612
121.0283    0.026507838773771282
129.0333    0.007174063852569033
152.062     0.002504029901672473
165.0698    0.0018333385173958288
167.0854    0.007767038599586783
177.0699    0.0015376000052783182
178.0775    0.012307085718002082
179.0852    0.0014394803118731995
223.0751    1.0


