PRECURSORMZ: 284.96115453399995
COMPOUNDNAME: Challenge-123
FORMULA: C6H12Cl3O4P
SMILES: ClCCOP(=O)(OCCCl)OCCCl
INCHIKEY: HQUQLFOMPYWACS-UHFFFAOYSA-N
PRECURSORTYPE: [M+H]+
IONMODE: positive
CHARGE: 1
PARENTMASS: 283.95387853399995
NUM PEAKS: 13
59.0493     0.0013107283420585342
62.9997     1.0
80.9737     0.0031531736969356737
98.9842     0.829355818133465
116.9503    0.0029588848676946598
116.9947    0.002451359734387154
124.9998    0.3977322051670948
131.0105    0.001096884274638407
160.9764    0.4507818353420746
186.9921    0.09594076557835567
222.9688    0.508588469719641
248.9844    0.005344260586401181
284.9612    0.7836851179322945


