PRECURSORMZ: 285.14199563999995
COMPOUNDNAME: Challenge-112
FORMULA: C17H20N2S
SMILES: CC(CN1C2=C(SC3=C1C=CC=C3)C=CC=C2)N(C)C
INCHIKEY: PWWVAXIEGOYWEE-UHFFFAOYSA-N
PRECURSORTYPE: [M+H]+
IONMODE: positive
CHARGE: 1
PARENTMASS: 284.13471963999996
NUM PEAKS: 15
56.0496     0.008691459241843568
58.0653     0.0055640593619495585
70.0651     0.002406280913853128
71.073      0.05781186320047087
84.0808     0.009404824042885283
86.0964     1.0
105.0698    0.003941036412699623
136.0216    0.0013444111659057043
162.0372    0.009205616494311047
198.0372    0.2284572169502911
206.0964    0.001439608603338248
207.1042    0.004143934670427599
225.0607    0.006504067361357758
240.0841    0.07376637500913201
285.142     0.2732722128311243


