PRECURSORMZ: 254.09642535199998
COMPOUNDNAME: Challenge-197
FORMULA: C19H11N
SMILES: c1cnc2c(c1)cc1ccc3cccc4ccc2c1c34
INCHIKEY: BYFIUFNRSNKODH-UHFFFAOYSA-N
PRECURSORTYPE: [M+H]+
IONMODE: positive
CHARGE: 1
PARENTMASS: 253.089149352
NUM PEAKS: 3
226.0768    0.001917427606125264
253.0886    0.02494009359198934
254.0964    1.0


