PRECURSORMZ: 347.915813184
COMPOUNDNAME: Challenge-076
FORMULA: C13H7Cl4NO2
SMILES: Oc1c(Cl)cc(Cl)cc1C(=O)Nc1ccc(Cl)c(Cl)c1
INCHIKEY: SJQBHPJLLIJASD-UHFFFAOYSA-N
PRECURSORTYPE: [M-H]-
IONMODE: negative
CHARGE: -1
PARENTMASS: 348.923089184
NUM PEAKS: 8
123.9955    0.0015055348969224326
124.9795    0.12526833762979814
158.941     0.005042103740288266
159.9727    0.054220556241144864
160.9567    0.2965612355241768
185.9519    0.007620600745515024
329.9054    0.001073730577158533
347.9157    1.0


