PRECURSORMZ: 418.936515808
COMPOUNDNAME: Challenge-064
FORMULA: C12H4Cl2F6N4S
SMILES: C1=C(C=C(C(=C1Cl)N2C(=C(C(=N2)C#N)SC(F)(F)F)N)Cl)C(F)(F)F
INCHIKEY: FQXWEKADCSXYOC-UHFFFAOYSA-N
PRECURSORTYPE: [M-H]-
IONMODE: negative
CHARGE: -1
PARENTMASS: 419.943791808
NUM PEAKS: 23
89.9973     0.0012413509499972705
150.0035    0.049756594864545596
170.0097    0.346299999935342
182.0094    0.0013458660291262234
183.0178    0.0061404479452557125
192.9636    0.009066306712362032
213.9818    0.00214065632883372
214.9896    0.006945759029331559
217.9864    0.5024638864146931
226.9896    0.0201707775469281
229.9524    0.0019104552857889328
233.9813    0.09093007705666324
234.9475    0.005845016191755012
245.9814    0.03901912759882541
249.9586    0.03926488351533489
261.9586    0.8219414052350278
280.9582    0.0011086449719287183
287.9617    0.0012977650768890142
313.9648    0.3133660191965982
330.9536    0.015249946218378415
349.9413    0.0013170146946446253
382.9599    1.0
418.9366    0.06641344890616634


