PRECURSORMZ: 224.091733896
COMPOUNDNAME: Challenge-121
FORMULA: C11H13NO4
SMILES: CNC(=O)Oc1cccc2OC(C)(C)Oc12
INCHIKEY: XEGGRYVFLWGFHI-UHFFFAOYSA-N
PRECURSORTYPE: [M+H]+
IONMODE: positive
CHARGE: 1
PARENTMASS: 223.084457896
NUM PEAKS: 11
53.0388     0.0018869142932551365
59.0493     0.13915335466854997
81.0335     0.1243739573996764
109.0284    1.0
110.0346    0.0012379272497199097
121.0647    0.002792136061265154
127.039     0.025712434844347362
141.0543    0.002722233397965039
149.0598    0.002414011369134088
167.0703    0.5840647414801443
224.0917    0.003508519936077967


