PRECURSORMZ: 387.25298556799993
COMPOUNDNAME: Challenge-191
FORMULA: C24H34O4
SMILES: C[C@H]1C[C@H]2[C@@H]3CC[C@](OC(C)=O)(C(C)=O)[C@@]3(C)CC[C@@H]2[C@@]2(C)CCC(=O)C=C12
INCHIKEY: PSGAAPLEWMOORI-PEINSRQWSA-N
PRECURSORTYPE: [M+H]+
IONMODE: positive
CHARGE: 1
PARENTMASS: 386.24570956799994
NUM PEAKS: 141
55.0181     0.0019594073514506583
55.0544     0.005953158449866879
59.0493     0.0013325677968572655
61.0286     0.0015224851317577842
67.0543     0.024621736884609387
69.0337     0.0011705689588712841
69.0699     0.007942331710597519
77.0388     0.0014013166148477251
79.0542     0.016161491058724775
81.0335     0.0016130969465834675
81.0699     0.02435105837167703
83.0491     0.05011848851508036
85.0648     0.005940515796194939
91.0541     0.010439050171239243
93.0699     0.035253108534623816
95.0491     0.008700238903020246
95.0855     0.05908223362420242
97.0648     0.40282520676974815
99.0804     0.012590496456044493
105.0699    0.03619085839505641
107.0855    0.03244918462407215
108.0569    0.003956212682270218
109.0647    0.01769660546922335
109.1012    0.022972280187687735
111.0804    0.040112475146034186
117.0698    0.007007950660948972
119.0855    0.038816327286705296
121.0646    0.009162790834534178
121.1012    0.020099107571093778
123.0804    0.7523697034269516
125.0963    0.001760806342499352
129.0699    0.0048524618032028686
131.0854    0.024589491597467
133.1012    0.03660251871353492
135.0804    0.01356468798826858
135.1168    0.016233565218973036
137.096     0.08758521837383842
139.1117    0.0014373436637734906
141.0702    0.0014730564018171717
142.078     0.0013843271085512087
143.0856    0.02070292218170807
144.0931    0.0015641614172291049
145.1011    0.07276278529731268
147.1167    0.06772603700522452
149.0961    0.005698692025357799
149.1326    0.008202694807878476
151.1118    0.007093707375766284
155.0855    0.008999039880567215
156.0933    0.005567062640420059
157.1011    0.02836221861485468
158.1087    0.0017775016003105124
159.0803    0.002427075194130438
159.1168    0.038570054679393534
161.096     0.007800139473782059
161.1324    0.04526696964452376
163.1117    0.012545727217744147
163.1481    0.013082926311886808
165.1271    0.0012248343982899348
169.1013    0.018417673085652793
170.109     0.001130949069064667
171.1168    0.05363061168642634
173.096     0.004470982016870068
173.1325    0.07680053490362158
174.1405    0.002182865669948964
175.1118    0.02091177173165501
175.1481    0.10432929468370561
177.1273    0.018652903015431727
177.1637    0.0014914669945486456
181.1011    0.004124875579702953
182.1087    0.0039315710434880535
183.1169    0.01813727601337172
184.1244    0.001452900380570291
185.1324    0.030932704836401856
187.1118    0.014998799934302337
187.148     0.03823912878908456
189.1273    0.025410219169646822
189.1639    0.008348700571938806
191.143     0.011962377923659638
195.1169    0.009920828432535644
196.1243    0.0011232400931216206
197.1325    0.027211546537939193
198.1398    0.004347706948303483
199.1481    0.02985438612142244
201.1276    0.004539441601974354
201.1638    0.012888397969471452
203.1431    0.020059930725881588
203.1794    0.005314575705721554
205.1586    0.04284773717564789
207.1168    0.001561795726281499
209.1322    0.010737655540418105
211.1481    0.02366120450082483
213.1273    0.007350907301829664
213.1636    0.01457952426439885
214.1351    0.08198367181717432
215.143     0.029246746280498524
215.1795    0.0016781592991750075
217.1588    0.0172248415538781
221.1325    0.007462218494480299
223.1477    0.00619919532401707
224.1557    0.0024830058124775804
225.1638    0.030472985046559476
226.1712    0.0024554919072304073
227.143     0.007348580063809122
227.1792    0.029216095953896078
229.1589    0.0019341521377018711
231.1743    0.006219824483453471
233.1541    0.0010719037636253766
235.1477    0.002605933132834199
237.1637    0.003679226217433046
238.1709    0.0013091248862796478
239.1429    0.0061480161499618685
239.18      0.007529980911298259
241.1589    0.004514499027241257
241.1947    0.0023254407641686665
243.174     0.009242563939527122
245.1899    0.010880894365596252
249.1634    0.0052204128466748715
251.1795    0.016849729906640305
252.1877    0.0011533754848746917
253.1585    0.005591119125964299
255.1746    0.0014323063303281647
257.1535    0.03854902260015616
265.195     0.011636715068759185
266.203     0.03030553926786162
267.1741    0.005252974116565735
267.2107    0.10486027109112955
269.1901    0.021231198524905594
275.1629    0.0011994053104361646
281.1898    0.002113732322687869
281.2269    0.0037378368376098786
283.2057    0.0357498033216374
284.2137    0.028762719225152788
285.2213    0.24207876389956282
291.2108    0.016960696694813763
301.2167    0.0013367441191096468
303.2321    0.006642876899541159
309.2213    0.07305196802749458
317.1749    0.0015303964035345127
327.2319    0.601897314233575
345.2424    0.007274310742985451
387.253     1.0


