PRECURSORMZ: 474.173355344
COMPOUNDNAME: Challenge-115
FORMULA: C28H27NO4S
SMILES: Oc1ccc(cc1)-c1sc2cc(O)ccc2c1C(=O)c1ccc(OCCN2CCCCC2)cc1
INCHIKEY: GZUITABIAKMVPG-UHFFFAOYSA-N
PRECURSORTYPE: [M+H]+
IONMODE: positive
CHARGE: 1
PARENTMASS: 473.166079344
NUM PEAKS: 31
55.0544     0.018731095339647792
56.0497     0.040575941781738324
58.0653     0.03047857218206351
67.0543     0.004608458893700082
69.0699     0.07950613434668008
70.0652     0.020932907549819323
82.0651     0.003946690195761848
83.0729     0.0019021046323421976
83.0855     0.0031589256240125733
84.0808     0.34561471846007885
85.0886     0.1298955534239979
86.0964     0.011712704518522521
97.0886     0.0034298043000521895
98.0964     0.007460581748023148
103.0179    0.005116706919233036
110.0964    0.013390642032732249
112.1121    0.6925036859856203
121.0285    0.001219235738140463
147.044     0.028814462352910377
197.0597    0.013455061345401195
213.0369    0.007399637088553024
241.0315    0.002790975889598267
269.0267    0.07545604762784758
305.0622    0.0010355272529519158
317.0622    0.0011307525781265818
333.058     0.0010020711222096543
345.0583    0.004264906689401371
361.0533    0.003999161408449505
362.0608    0.005784847023697989
389.0853    0.0010221670461730552
474.1736    1.0


