PRECURSORMZ: 331.014996132
COMPOUNDNAME: Challenge-122
FORMULA: C12H11ClN2O5S
SMILES: NS(=O)(=O)c1cc(C(O)=O)c(NCc2ccco2)cc1Cl
INCHIKEY: ZZUFCTLCJUWOSV-UHFFFAOYSA-N
PRECURSORTYPE: [M+H]+
IONMODE: positive
CHARGE: 1
PARENTMASS: 330.00772013200003
NUM PEAKS: 17
53.0388     0.03953618307399718
81.0335     1.0
96.0445     0.007385244141202544
98.9842     0.018868222579831853
115.948     0.003466254135942154
134.0968    0.0033249395366499726
185.9953    0.005221169798517753
203.0133    0.003949805303343927
205.0101    0.026100479660346936
222.0128    0.0054846561604138585
231.9975    0.0037797764490193576
233.005     0.0029704079758706876
237.0003    0.00632250543936701
244.9784    0.0036700553119037318
256.9946    0.003587881183680965
262.9889    0.01897708773644516
284.9914    0.00619589814143288


