PRECURSORMZ: 192.076752528
COMPOUNDNAME: Challenge-088
FORMULA: C9H9N3O2
SMILES: COC(=O)NC1=NC2=CC=CC=C2N1
INCHIKEY: TWFZGCMQGLPBSX-UHFFFAOYSA-N
PRECURSORTYPE: [M+H]+
IONMODE: positive
CHARGE: 1
PARENTMASS: 191.069476528
NUM PEAKS: 6
92.0496     0.0010207211047542528
132.0556    0.006919341785810628
133.0633    0.0035892004257887735
135.0554    0.0014253840051223535
160.0505    1.0
192.0767    0.4385865591694548


