PRECURSORMZ: 375.192545996
COMPOUNDNAME: Challenge-021
FORMULA: C20H28N2O5
SMILES: CCOC(=O)[C@H](CCc1ccccc1)N[C@@H](C)C(=O)N1CCC[C@H]1C(O)=O
INCHIKEY: GBXSMTUPTTWBMN-XIRDDKMYSA-N
PRECURSORTYPE: [M-H]-
IONMODE: negative
CHARGE: -1
PARENTMASS: 376.19982199599997
NUM PEAKS: 8
105.1127    0.012211008878914168
114.0552    0.5857333436600132
126.0921    0.21994479287319854
158.097     0.014264306730239566
168.0671    0.012882388108538046
170.0822    0.054839456387327075
186.0921    0.016504268022594543
375.1925    1.0


