PRECURSORMZ: 311.130952288
COMPOUNDNAME: Challenge-098
FORMULA: C19H19ClN2
SMILES: Clc1ccc2c(CCc3cccnc3C2=C2CCNCC2)c1
INCHIKEY: JAUOIFJMECXRGI-UHFFFAOYSA-N
PRECURSORTYPE: [M+H]+
IONMODE: positive
CHARGE: 1
PARENTMASS: 310.123676288
NUM PEAKS: 39
80.0494     0.00213961758341211
82.0651     0.004436358429522799
93.0572     0.002792330435872246
214.0415    0.0023573741622619432
218.0966    0.0024549331772617555
219.1039    0.0010709421160150104
228.0573    0.006077065606011696
229.0652    0.0030192802584180574
230.0732    0.0023694244634598735
230.096     0.0036171018470597376
231.1042    0.012244983405599133
232.112     0.00474743127435716
233.1197    0.0030511623381562596
243.1042    0.01958231309312346
244.1121    0.018212899730095603
245.12      0.0022205222254116303
246.1277    0.0069432550385345165
247.1355    0.012298401440940375
252.0572    0.005424740151178944
253.0652    0.01948444490501718
256.1127    0.0024721425718628185
257.1199    0.005437211374798935
258.1278    0.18352554712278665
259.1355    1.0
264.0578    0.0019164281253359465
266.073     0.018421057042736142
267.0809    0.07437615758322288
268.0886    0.005037370461124611
277.0652    0.001789819875748171
278.0734    0.010718200931378397
279.0809    0.09375845802632382
280.0888    0.03328219622568922
281.0966    0.015066711361426267
282.1044    0.20087647223204583
292.0887    0.03342181582058901
293.0965    0.0047964203118238
294.1043    0.3109279245969258
309.1151    0.005144729891101782
311.1309    0.9603335374372499


