PRECURSORMZ: 359.1248603599999
COMPOUNDNAME: Challenge-053
FORMULA: C18H20N2O6
SMILES: CCOC(=O)C1=C(C)NC(C)=C(C1C1=CC=CC(=C1)[N+]([O-])=O)C(=O)OC
INCHIKEY: PVHUJELLJLJGLN-UHFFFAOYSA-N
PRECURSORTYPE: [M-H]-
IONMODE: negative
CHARGE: -1
PARENTMASS: 360.1321363599999
NUM PEAKS: 56
82.0044     0.022257897254903923
92.0253     0.18464720042282345
93.0331     0.0012504519217843416
95.0125     0.046178115212710084
108.0206    0.08923879254848818
122.0242    0.502472982800671
123.0082    0.0032089327298246667
134.0609    0.0012301958063328333
136.0402    0.0010898307787749976
140.0352    0.007435154964292961
146.0609    0.0010732401351632303
149.0483    0.00890060893590267
150.0561    0.014494427898332002
160.0766    0.005206330996281926
162.0563    0.0026426215053817308
163.0638    0.0038874124023201852
164.0718    0.013091412191910411
166.0146    0.04200273365713059
166.0874    0.005178025872052489
177.0795    0.001073716062030805
178.0873    0.009776255925080761
192.1031    0.0040243707954574865
207.0539    0.006830719492879048
208.0616    0.006652438958204437
208.0977    0.005043163227051349
209.0477    0.003009819957700956
209.0721    0.0016483434822650443
221.0361    0.0014629240445768134
221.0697    0.004513690412077521
222.0776    0.0018205872603562104
223.064     0.0031487154566852277
224.0718    0.08430657037914673
236.0929    0.1815217803338669
237.0672    0.004866135131501933
239.0466    0.007196690554855582
242.0825    0.0014186377971098715
251.0588    0.00492384752639098
253.0617    0.004356834936037933
254.07      0.0018143250647302289
264.054     0.0010637299474059064
265.0747    0.005420631680197184
268.0615    0.03473389425906954
279.0901    0.004093605630298339
281.0566    0.0012155756669447082
282.0773    0.011565239971511185
283.0364    0.0013730907609235652
283.0842    0.0011990685192746207
295.0725    0.015025328493908552
296.0925    0.0035377146993770367
298.0594    0.015302785508110378
299.0672    0.0010033206336006039
309.0879    0.014831567811646516
312.0752    0.013555465936578151
313.0831    0.03867823419442698
327.0986    0.043567706441628405
359.125     1.0


