PRECURSORMZ: 375.17214840400004
COMPOUNDNAME: Challenge-174
FORMULA: C22H27ClO3
SMILES: CC(=O)C1(O)CCC2C3C=C(Cl)C4=CC(=O)C5CC5C4(C)C3CCC12C
INCHIKEY: DUSHUSLJJMDGTE-UHFFFAOYSA-N
PRECURSORTYPE: [M+H]+
IONMODE: positive
CHARGE: 1
PARENTMASS: 374.16487240400005
NUM PEAKS: 258
55.0181     0.003000241081915835
55.0545     0.002959355270957073
59.0493     0.008451512789021865
61.0285     0.006402160766752624
67.0543     0.008076554098439291
69.0335     0.0038893661383318065
69.07       0.003991266854320178
71.0492     0.004030226190279664
79.0542     0.007704188440090988
81.0699     0.011383900524742512
83.0491     0.009781552997373951
85.0648     0.008339411255535306
87.044      0.01602673642053158
91.0542     0.011452842477263078
93.0699     0.015486968338842813
95.0492     0.009843732820188088
95.0855     0.009620168277669055
97.0648     0.008122541875523862
99.0441     0.001237412113338402
99.0804     0.0026932027047272926
105.0699    0.025111003582900877
107.0491    0.00469109900025759
107.0855    0.013843372131740367
109.0648    0.014080636917241313
109.1012    0.006193252696519917
111.0805    0.015138935134325298
113.0597    0.0021521030659452482
115.0544    0.0012011361374627905
117.0699    0.008958392189195107
119.0855    0.022185128796611896
121.0648    0.013565793092535899
121.1012    0.010666907644757388
123.0805    0.006593123185072108
127.031     0.0023063472134014136
129.0699    0.009185667960431418
130.0776    0.0011565313109031632
131.0855    0.013796154027049142
133.0649    0.0024244742374071294
133.1011    0.036696927015409
135.0805    0.005460050639661339
135.1167    0.00467061015216505
137.0961    0.00362929824293644
139.0308    0.002408688667000776
141.0465    0.0013315056998430476
141.0699    0.0055357531645116205
142.0775    0.006932589260267862
143.0855    0.012034809238483277
144.0568    0.0013767365918430214
144.0932    0.001346378647493075
145.0648    0.011226692689393362
145.1011    0.020753275085367603
146.0724    0.002449044969875662
147.0803    0.011187783189488829
147.1168    0.03398609480624209
149.0963    0.004258022125339547
151.1118    0.004163465997949869
154.0777    0.0011557993438460414
155.0261    0.0027028895879087763
155.0854    0.015330556322996194
156.0934    0.003568518501791139
157.0413    0.0012255386732458566
157.0647    0.003825477873258814
157.1012    0.01665814366301856
158.0725    0.002983261003567327
159.0805    0.010758199510547645
159.1169    0.009833480609258231
161.0961    0.005876242436210629
161.1323    0.001059184364436119
163.0308    0.0012541414540354278
163.1117    0.006726640205797989
165.0466    0.0037397847767671787
165.0701    0.004544841080607639
166.0778    0.001122390498506943
167.0258    0.0029164012637177637
167.0855    0.004880318714030439
168.0934    0.004875213633151193
169.0413    0.003566414485846093
169.0648    0.0010595160856769
169.1011    0.011739613153852935
171.0804    0.009139275265400353
171.117     0.007483459880574124
172.088     0.0011599606544346146
173.0962    0.005480832274576728
175.1118    0.016923154672114575
177.0465    0.011374615444754085
177.1274    0.0026510476317439476
178.0776    0.0012423754729363747
179.0256    0.002732355155399721
179.0622    0.003154000885212926
179.0853    0.005094951701075867
180.0933    0.0036590020890651287
181.0414    0.012108485616224378
181.0778    0.0037245972390202602
181.1012    0.013111973517120398
182.1091    0.0037183365846167934
183.0572    0.004496676090872309
183.0804    0.005472377276378613
183.1168    0.015690467639736406
184.0884    0.006023789863782488
184.125     0.0012721696469146654
185.0962    0.017829199069187084
185.1323    0.0038278108235812996
187.1119    0.004911721658157679
189.0466    0.0060194603565084485
189.1271    0.004089440767824099
191.0257    0.007128686349624221
191.0621    0.0061180578764794685
191.0854    0.0025675457642935257
192.0934    0.003541457523951675
193.0414    0.004206147464263655
193.078     0.002323056308201115
193.1012    0.013486821633956045
194.1088    0.0031589471136670086
195.0572    0.004303069246886882
195.0804    0.0025346866729356273
195.1169    0.021680325379602787
196.1246    0.0056928737867646025
197.0963    0.005028207207103383
197.1326    0.00601621789818307
199.1121    0.004326334897666333
201.0464    0.003053601480380012
201.127     0.00503490859911784
203.0621    0.005414431960858762
203.0855    0.0027386235966867746
204.0932    0.0012461879311402768
205.0414    0.011136761970854007
205.0778    0.003343370107150633
205.1011    0.013843337869452585
206.109     0.00368792568945846
207.0571    0.005630837242608456
207.1168    0.01917910828969823
208.0883    0.0013518621709146194
208.1245    0.0032952206911824756
209.0963    0.0073723348222892995
209.1323    0.012695904753331775
210.104     0.0011787659782957751
210.1398    0.003237664719841945
211.1116    0.007494226025820683
211.148     0.002473506685973985
213.1275    0.0034279434497825434
215.0625    0.004335317846571606
217.0781    0.00427430605629543
217.1011    0.005952829551036326
218.109     0.004364654151795017
219.0572    0.0546110965582909
219.1168    0.014322550472243342
220.1246    0.004240739915907887
221.0728    0.006320982505364384
221.0961    0.004811177417290058
221.1326    0.014524673052118858
222.1038    0.003201303088246883
222.1406    0.002121234302032034
223.1117    0.009893709039045614
223.1483    0.006136612462689148
224.1197    0.002882437992267313
225.1275    0.005760468608424722
226.1354    0.0011793795847223837
227.1427    0.001236367113561107
229.0778    0.003271771269950385
229.1011    0.0013244959472385688
230.1092    0.00272190515762677
231.0575    0.0021935308440016233
231.0934    0.0035328888372531987
231.1169    0.006152153524950888
232.1246    0.005085133998250131
233.0727    0.003222333903437037
233.1326    0.014587109842091344
234.104     0.0013163384079934541
234.1403    0.0027361691709803407
235.0884    0.0025108556944078027
235.1118    0.009774586851317556
235.1481    0.019403808159844164
236.1194    0.005398993685460362
236.1559    0.0022119468236834637
237.1276    0.013207160382080575
237.1635    0.007152451918329919
238.1351    0.0031314469555932716
239.143     0.00960900500135959
241.0778    0.003563687519214135
243.0937    0.0030240518145463347
243.1164    0.00262507681760658
244.1247    0.003263467337293846
245.0731    0.01081296933494096
245.1093    0.0037758442772790886
245.1324    0.007362699332539487
246.14      0.006699239719834158
247.0889    0.0013620193818647218
247.1117    0.005128637759470641
247.148     0.013102934502653303
248.1198    0.0032017578422483288
248.1557    0.002872760453346133
249.1272    0.010452209247889832
249.1637    0.013288457004099327
250.1353    0.005787778766538952
250.1713    0.003865790569585616
251.1432    0.016222188755926986
251.1792    0.008202591038792074
252.1507    0.0011722623731244123
253.1586    0.005452679575658451
255.0938    0.00484666380317001
257.1092    0.003378325427569991
259.0882    0.005640212650446484
259.1118    0.0010952781272358088
259.1482    0.006117202876661682
260.1557    0.007866273979318661
261.1043    0.0022255489519321906
261.1272    0.005817347120893237
261.1638    0.0178324539865262
262.1354    0.004900167480292177
262.1722    0.0010019133930348507
263.143     0.03908211953987616
264.1513    0.004409880371664838
265.1228    0.0020758990657920025
265.1586    0.007920314951408288
269.1099    0.002957207648463944
270.1397    0.0026745422169008387
271.0886    0.0024774359474316835
271.1248    0.00218832764838919
273.1038    0.009682415067682035
273.1271    0.0012005334326732028
273.1632    0.0013186339812747251
274.1121    0.0010033524091216178
275.1196    0.0037548695276507565
275.1427    0.002492886681843822
275.1794    0.01025298183133174
277.1587    0.031062800593173644
278.1665    0.023363659611023362
279.1744    0.06187377960066992
281.1087    0.0012180445764823035
283.0887    0.0011209390234064376
285.1038    0.0031023333552404326
285.1636    0.003563597191364533
287.1193    0.005530232264048862
288.1509    0.0031127646644927764
289.1348    0.002651256320224063
291.1738    0.0010307746983594906
293.1536    0.03477119955695747
293.1895    0.012817268006155997
295.1697    0.001183559583831564
296.133     0.0011127736972777367
297.1402    0.003716539371885052
297.1853    0.004321776456014853
299.1198    0.00872490092748013
301.1346    0.0030001709999635576
303.1745    0.02060847331294831
306.1612    0.008179823748562152
313.1353    0.02625355743776645
314.143     0.020319062882822665
315.151     0.019469741260546947
321.185     0.11619440515529071
322.1929    0.003523690970360941
329.1668    0.006332802994648543
331.1469    0.0010040719171650013
333.161     0.0022367324741389806
339.1512    0.006989034822008973
339.1955    0.00654111458959853
357.1616    0.044306046951170325
375.1722    1.0


