PRECURSORMZ: 414.99329978799994
COMPOUNDNAME: Challenge-147
FORMULA: C18H14Cl4N2O
SMILES: Clc1ccc(COC(Cn2ccnc2)c2ccc(Cl)cc2Cl)c(Cl)c1
INCHIKEY: BYBLEWFAAKGYCD-UHFFFAOYSA-N
PRECURSORTYPE: [M+H]+
IONMODE: positive
CHARGE: 1
PARENTMASS: 413.98602378799995
NUM PEAKS: 10
69.0448     0.06020972013723971
81.0447     0.0015473557652601528
82.0526     0.0021257638410721066
89.0386     0.0011804624756800045
98.9996     0.001229581723203033
122.9996    0.007240655135499314
124.0074    0.001781617893247261
158.9763    1.0
227.0136    0.01800218085721406
414.9933    0.5805339240503582


