PRECURSORMZ: 423.16946303600014
COMPOUNDNAME: Challenge-145
FORMULA: C22H23ClN6O
SMILES: CCCCC1=NC(Cl)=C(CO)N1CC1=CC=C(C=C1)C1=C(C=CC=C1)C1=NNN=N1
INCHIKEY: PSIFNNKUMBGKDQ-UHFFFAOYSA-N
PRECURSORTYPE: [M+H]+
IONMODE: positive
CHARGE: 1
PARENTMASS: 422.16218703600015
NUM PEAKS: 90
77.0387     0.003277089008792855
79.0542     0.01276677697075559
80.0495     0.01611577538232117
83.0855     0.0020419085534786807
95.0491     0.005864825191218438
102.0105    0.0029590405384015126
105.0446    0.002500188892714955
108.0807    0.005085757003320346
115.0055    0.003944050961345319
115.0543    0.002085861545169021
129.0213    0.007108936829647814
129.0447    0.007831283688278075
135.0916    0.009715032921136452
140.0494    0.006776533380727181
142.0291    0.03468723705439832
144.0574    0.003368288320748971
152.0619    0.0162518721495424
153.0698    0.03586491949294137
154.0651    0.0027212237424662756
160.9734    0.0010419790772825182
163.0541    0.004562893000983978
165.0697    0.01668911394795378
166.0649    0.0038223352068713677
166.0774    0.004589825399492182
167.0729    0.012411576224950453
168.0679    0.0011878748348852042
169.0646    0.006155598479231405
171.0682    0.14604040661051607
177.0573    0.0025948550946997572
178.0652    0.017339056753669552
178.0774    0.015437206507582553
179.0603    0.0034077822294362073
179.0728    0.027724726791131055
179.0854    0.0027213249866473387
180.0807    0.27052919581342005
181.0762    0.0030645861508142576
182.0599    0.002283279020169229
183.0681    0.0023506252030669004
189.079     0.0067855918422414325
190.065     0.07688962573439637
191.0729    0.011519477586968172
192.0681    0.0545667446189007
192.0807    0.09937680446057563
194.06      0.013034595310230684
195.0916    0.0059954417555532725
196.0756    0.036627425579163
204.081     0.0026869135358494655
205.076     0.09525631092585547
206.0838    0.21173451588850967
207.0916    1.0
208.0757    0.01912559277021667
214.065     0.011428103267213363
216.0805    0.006390813299713323
218.0833    0.003537679960085494
219.0916    0.0045394405096134535
229.0758    0.0011186975786557365
231.0914    0.008064547388756366
232.0993    0.003944723511976666
233.1069    0.0011922500298525698
235.0977    0.06189654852222836
239.118     0.001110446177899101
241.076     0.020902326903691443
242.0838    0.006536996880059316
243.0917    0.007870868716728268
254.0613    0.0038749011856792823
257.0948    0.002770784215442063
258.1026    0.054824288120343345
259.0866    0.025532016476304462
259.11      0.0031275021776177
267.1241    0.0012628056532899385
281.0949    0.011786089674343173
282.1025    0.017595425822611865
294.0792    0.006824495641987617
295.0634    0.004048694054201159
295.1103    0.003854153360288584
298.1212    0.010756458048114011
299.1291    0.002173595413441895
300.1128    0.0010812603731895228
311.1291    0.0021620955208185803
324.1497    0.018170845679338042
341.1761    0.04129782254429057
348.139     0.0020296435441156187
362.1417    0.02736660442752953
365.153     0.002563107812209285
376.1449    0.002353367474028264
377.1528    0.25450004350607097
380.153     0.0010076341583750575
393.159     0.002810134935930368
405.1589    0.5572337405316442
423.1694    0.13478014450032352


