PRECURSORMZ: 405.227164744
COMPOUNDNAME: Challenge-143
FORMULA: C23H32O6
SMILES: CC(=O)OCC(=O)[C@@]1(O)CC[C@H]2[C@@H]3CCC4=CC(=O)CC[C@]4(C)[C@H]3[C@@H](O)C[C@]12C
INCHIKEY: ALEXXDVDDISNDU-JZYPGELDSA-N
PRECURSORTYPE: [M+H]+
IONMODE: positive
CHARGE: 1
PARENTMASS: 404.219888744
NUM PEAKS: 218
55.018      0.0016755626939638207
55.0545     0.0019594721336899557
57.0338     0.001593513799589002
59.0493     0.0023645246975713594
61.0286     0.012247890996729098
67.0543     0.013659650333370736
69.0335     0.005508250109281289
69.07       0.008012403635675442
71.0492     0.007461554758718638
77.0386     0.0012407990178919849
79.0542     0.017328361383593234
81.0335     0.001840782604763492
81.0699     0.02674807355091336
83.0491     0.029037998067270383
85.0649     0.0017251286672037222
87.044      0.0015501362457145825
91.0541     0.02495921421309935
93.0699     0.03763876211514982
95.0491     0.010824776454864734
95.0855     0.028026137069720625
97.0648     0.13089777719345552
99.0441     0.024133654785013142
101.0233    0.044627890929736735
103.0389    0.00812079308906802
105.0699    0.053652465402632465
107.0491    0.010142748160640983
107.0855    0.0326516665187252
109.0648    0.06681488168311608
109.1012    0.008120051986072288
111.0442    0.002444593130268321
111.0804    0.00561237717369277
115.0543    0.005233585615400204
116.0618    0.0015478166352081704
117.0699    0.015589080580086855
119.0855    0.10596067883359599
121.0648    0.20962110795316563
121.1011    0.013929185724597754
123.0804    0.06967984350584425
125.0595    0.004286464360901248
125.0958    0.0010420326822234095
128.062     0.004383653528906366
129.0699    0.023725394961839473
130.078     0.0012887446133954576
131.0855    0.051997649405526536
133.0648    0.0184400493733702
133.1011    0.03177092632012635
135.0804    0.04942457748755198
135.1167    0.007416092067601992
137.0596    0.004333178971767744
137.096     0.010788680133247807
139.0752    0.001678384747179203
141.0696    0.015578064523692687
142.0776    0.007942815320483082
143.0855    0.0554718481350164
144.0932    0.005177655367846682
145.0649    0.009495250241591202
145.1011    0.06576931515383959
146.1089    0.0018325216092235082
147.0803    0.03861934186704361
147.1167    0.02579770735391897
149.0961    0.022449416580274432
149.1321    0.00266843554413708
151.0754    0.01102756233220507
151.1116    0.0018438140091076116
153.07      0.0011974800823336118
153.0911    0.004499541939730322
154.0777    0.007314351606058119
155.0855    0.03610584290626261
156.0933    0.00242343191817553
157.1012    0.06375106978426785
158.0725    0.0017006178370511302
159.0804    0.030485020508036573
159.1168    0.05159188504780742
160.1248    0.001134088560551883
161.0961    0.03205751126727775
161.1327    0.008948014765116407
163.1117    0.06538427237084292
165.0698    0.005180988237816183
165.0908    0.0021649125833426847
166.0777    0.0023078952172478533
167.0855    0.017827789436309523
168.0932    0.006168761294493395
169.1011    0.06071419718866557
171.0805    0.014383867067057679
171.1168    0.04064479310246649
172.1244    0.0013549121311442463
173.096     0.04208411560871772
173.1325    0.01389376351361536
175.1117    0.031091108773822065
177.0908    0.00259631826730957
177.1273    0.006044503025542512
179.0855    0.008608417925146085
179.1061    0.0022139300566252932
180.093     0.0017390965745130913
181.1011    0.024680831643171884
182.1089    0.0051659526397502525
183.1168    0.047790223469768855
184.1248    0.0014373587926636666
185.0961    0.024946192572891875
185.1325    0.04166939520971121
187.1117    0.052796826404369245
187.1479    0.007062033251658479
189.1274    0.01991177106030485
191.1431    0.0010506621357499711
192.0934    0.004825535143355279
193.101     0.013569348817501083
193.1227    0.001837583719516382
194.109     0.005623694695712321
195.1169    0.028610046676927663
196.1247    0.0026284955357965306
197.0962    0.012457053709450779
197.1324    0.024805140156393665
198.1039    0.00464942478683868
199.1117    0.02601631598956929
199.1478    0.01694867380246967
201.1275    0.023672320263681934
201.1633    0.0015892011663370086
203.0855    0.0013602170887464557
203.1064    0.005600950789086274
203.1433    0.007065596407869593
205.1011    0.004032718231803618
205.1224    0.005468527826114627
206.1093    0.001772785358149537
207.1168    0.02152023253048571
208.1244    0.004746383668602187
209.0958    0.005567253631404679
209.1324    0.03124337822379803
211.1118    0.025705772899245163
211.148     0.014292225703964104
212.1192    0.0019042076227258188
213.1273    0.03925303517266444
213.1637    0.006096455601650022
215.1071    0.003908309230040045
215.1428    0.008598917570923976
217.1224    0.0044734902852702225
217.1586    0.0016722842552877907
218.1094    0.0018158656334211491
219.1169    0.00515666163665688
219.1381    0.001940530043561783
220.1242    0.003907161985854563
221.0961    0.0042310700522372935
221.1323    0.02127054781328559
223.112     0.011266381725823713
223.1481    0.035762703845194053
224.1186    0.0015507810471910941
225.1273    0.038960780996946824
225.1638    0.009328313651535884
226.1348    0.0084119083946453
227.143     0.02739716253854154
228.1512    0.0017688830531098693
229.1231    0.0013147292754943616
229.1587    0.01298025986336908
231.1168    0.004322200598576747
231.1386    0.009110253515842857
232.1249    0.0022700361591269556
233.1321    0.014830082249871458
235.1118    0.004164240984921694
235.1481    0.008577086435219223
237.1274    0.009027392339088535
237.1638    0.004524504968320987
239.1065    0.005261672162831633
239.143     0.05691688174005959
239.1793    0.004831275551305262
241.1586    0.1417871342845132
242.1664    0.0023216788955639335
243.1381    0.0049267229179192846
243.1747    0.007408731281915579
245.133     0.0015861572009251645
245.1537    0.005007758552831013
247.1482    0.007608896083124123
248.1191    0.0011975303266045089
248.1558    0.004086450292505397
249.1277    0.008750680391168397
249.1637    0.021894062467027197
250.1718    0.0015962646734206131
251.1303    0.0021671442663750264
251.1429    0.037006094630059806
251.1793    0.006950863615276269
252.1513    0.0026367942145396873
253.1221    0.002010608240395389
253.1587    0.015440420343570325
255.137     0.0015379938802478049
257.1529    0.0016982605433415454
258.1406    0.0023866907950820908
261.1266    0.0014292024726880518
263.143     0.01317422787116699
263.1791    0.01825817348676817
265.1587    0.012795628915912863
266.1663    0.008240835026286128
267.1374    0.007865376337963064
267.1743    0.07150930440156561
268.1827    0.007598872351080168
269.1536    0.008695545677904077
269.19      0.02153168822425023
273.1495    0.002079710860969078
273.1629    0.009428052716289026
276.1506    0.002018019270352698
279.1742    0.007636111729860003
281.1536    0.024083163479784217
281.19      0.04904561844835643
285.1484    0.0013346553159276013
285.185     0.013825075408276571
286.1924    0.004014605172145246
287.2004    0.007525071891177609
291.1743    0.06563166259967207
294.1615    0.0044400024787173645
297.1848    0.011812850977167328
299.1635    0.0023117765871746476
299.2005    0.01847813871773271
309.1849    0.20315121599509617
312.1712    0.0023759259600424063
315.1952    0.004162838332359153
317.2102    0.001442713994536773
327.1955    0.20675888025617878
345.2061    0.039788710279810346
369.2063    0.032330978272702454
387.2167    0.02284857381637059
405.2272    1.0


