PRECURSORMZ: 327.0445018639999
COMPOUNDNAME: Challenge-070
FORMULA: C16H12N2O4S
SMILES: OC1=CC=C2C=CC=CC2=C1N=NC1=CC=C(C=C1)S(O)(=O)=O
INCHIKEY: RDUJRVXKAIVTDH-UHFFFAOYSA-N
PRECURSORTYPE: [M-H]-
IONMODE: negative
CHARGE: -1
PARENTMASS: 328.0517778639999
NUM PEAKS: 16
93.0331     0.11250314409818277
95.0124     0.026500225148619765
106.0286    0.0029279946273058173
107.0365    0.075534475545392
155.9886    0.1679561389977392
156.9965    0.007421097276785416
157.0532    0.004315341496904749
158.9757    0.01727737855322743
169.9916    0.017107494166171414
170.9995    0.6938939842339931
171.9835    0.007720995872680596
219.0815    0.009078823374053215
235.0761    0.0024130814784255393
247.0876    0.015144937243324493
263.0828    0.004234480419471069
327.0444    1.0


