PRECURSORMZ: 489.043515212
COMPOUNDNAME: Challenge-206
FORMULA: C21H11ClF6N2O3
SMILES: FC1=CC(OC2=CC=C(C=C2Cl)C(F)(F)F)=CC=C1NC(=O)NC(=O)C1=C(F)C=CC=C1F
INCHIKEY: RYLHNOVXKPXDIP-UHFFFAOYSA-N
PRECURSORTYPE: [M+H]+
IONMODE: positive
CHARGE: 1
PARENTMASS: 488.036239212
NUM PEAKS: 9
63.0232     0.002436640379407397
111.0479    0.008812818177190618
113.0197    0.002400975079243368
140.0306    0.014526402201604179
141.0146    0.6603888490975478
158.0412    1.0
286.0244    0.0015643297931486045
306.0304    0.02555184624028386
489.0439    0.09350329985743429


