PRECURSORMZ: 345.24242088399996
COMPOUNDNAME: Challenge-184
FORMULA: C22H32O3
SMILES: CC1CC2C3CCC(O)(C(C)=O)C3(C)CCC2C2(C)CCC(=O)C=C12
INCHIKEY: FRQMUZJSZHZSGN-UHFFFAOYSA-N
PRECURSORTYPE: [M+H]+
IONMODE: positive
CHARGE: 1
PARENTMASS: 344.23514488399996
NUM PEAKS: 118
55.018      0.002258592236769764
55.0544     0.0032637338656275596
67.0543     0.01498763897354611
69.0335     0.0011262435540979887
69.07       0.006966788606814406
77.0387     0.0013580976375066698
79.0542     0.011514721792186045
81.0699     0.013730915105458145
83.0491     0.024872444104296797
85.0647     0.002299155982981705
87.044      0.0033582858381014193
91.0542     0.006977690509121211
93.0698     0.022368294072352052
95.0491     0.006397611535747228
95.0855     0.030407258113508626
97.0648     0.3839421860935581
99.0803     0.002887600042474862
105.0698    0.0195864951644977
107.0855    0.01881125537010843
109.0647    0.01057739075506028
109.1011    0.00885253293700254
111.0805    0.00655956355813791
117.0698    0.003779562649408744
119.0855    0.02363183499123671
121.0647    0.004305246018804366
121.1012    0.014653510934619089
123.0804    0.8665865348106553
125.0962    0.001220347806596108
129.0695    0.002254761304185824
131.0855    0.011705401458320466
133.1011    0.017953820199960918
135.0803    0.009293314044143481
135.1168    0.006812290410097575
137.096     0.04567589753458486
143.0854    0.009319261236094419
145.1011    0.023083063984152167
147.0803    0.0024487181856197027
147.1167    0.019456146160606615
149.0962    0.007005770303642105
149.1325    0.004294696122485554
151.1117    0.0031642103029637225
155.0856    0.003121390554329854
157.1011    0.010497720330119285
159.1168    0.015117645463745505
161.0961    0.00609493068345546
161.1324    0.013793762017247123
163.1117    0.01273935932568752
163.1481    0.0024281752743653324
165.1274    0.0012021961629860183
169.1012    0.0058894533184055365
171.1167    0.014554987227166092
173.1324    0.02672691685533133
175.1118    0.009833773754787915
175.1481    0.015020916591318928
177.1273    0.013029901113054009
183.1168    0.006631147337651358
185.0959    0.0012870604560554775
185.1325    0.014516122601992826
187.1119    0.005763821985778262
187.148     0.013178022068702963
189.1273    0.011939551095385682
189.1637    0.004678962470497943
191.1431    0.01056336114112083
195.1168    0.0034336293579765157
197.1323    0.01167432209816705
199.1481    0.012678614166505509
201.1638    0.003428728168984137
203.1428    0.008366783658163932
203.1795    0.0011399496389383613
205.1587    0.011622595411499905
207.1178    0.0010053188183888307
209.1323    0.003337618735970386
211.1482    0.008917862875300085
213.1271    0.003387371025005999
213.1635    0.006457040429841552
214.1351    0.007873375678256212
215.1431    0.014273377690623028
217.1589    0.006155830092452435
221.1324    0.0011816152825464262
223.1476    0.002887101696918826
225.164     0.008551018055106956
227.1431    0.0013210341755573623
227.1794    0.010549551432045789
229.159     0.004451051645179483
231.1743    0.004090394220128123
235.1484    0.0012759346937608023
237.1637    0.003196682657599963
239.1426    0.0065016217904647735
239.1794    0.003882868101125609
241.1577    0.0013565836162459512
241.1954    0.0010152161193366428
243.1743    0.0030735644104195542
245.1897    0.002779573755395421
251.1797    0.008097949170398615
253.1586    0.0022668885037407244
255.1741    0.002641939414089909
257.1535    0.02061687048103414
257.19      0.0028974799408794474
259.2058    0.002391334881379203
265.1949    0.0024163320526749037
266.2028    0.0032240410376016436
267.1741    0.0022515355054913565
267.2106    0.027077526684743374
269.1897    0.008077138892798309
271.2056    0.0010390101420756285
273.1843    0.0012048002162724789
275.1641    0.015224839592848833
281.2271    0.0012873388967471042
283.2061    0.006507132068470084
284.2133    0.005524919872362787
285.2214    0.021708379349876423
287.2002    0.001963067784867609
291.2109    0.005957195882014047
299.2374    0.0026561288150171673
303.2318    0.0028020182900096494
309.2213    0.02219503751608628
327.2319    0.03461862215775336
345.2424    1.0


