PRECURSORMZ: 477.230331976
COMPOUNDNAME: Challenge-133
FORMULA: C29H33ClN2O2
SMILES: CN(C)C(=O)C(CCN1CCC(O)(CC1)c1ccc(Cl)cc1)(c1ccccc1)c1ccccc1
INCHIKEY: RDOIQAHITMMDAJ-UHFFFAOYSA-N
PRECURSORTYPE: [M+H]+
IONMODE: positive
CHARGE: 1
PARENTMASS: 476.223055976
NUM PEAKS: 12
72.0444     0.05627889593882149
91.0544     0.001637930614385403
115.0542    0.012651662093213967
167.0856    0.004778456685564829
178.0775    0.003778592461568815
193.1012    0.006255938345417653
210.1277    0.2747732401724288
223.099     0.003078449510194274
224.0837    0.0021743172870764237
238.1226    0.03269014443018187
266.1539    1.0
477.2306    0.5571563715978529


