PRECURSORMZ: 221.096091004
COMPOUNDNAME: Challenge-180
FORMULA: C16H12O
SMILES: CC(=O)C1=CC2=CC=CC=C2C2=CC=CC=C12
INCHIKEY: UIFAWZBYTTXSOG-UHFFFAOYSA-N
PRECURSORTYPE: [M+H]+
IONMODE: positive
CHARGE: 1
PARENTMASS: 220.088815004
NUM PEAKS: 6
81.07       0.0014575003023698007
137.0592    0.002041268676201654
178.0772    0.0016908830703537962
179.0856    0.05587913305776587
203.0856    0.012489455988712912
221.0962    1.0


