PRECURSORMZ: 329.0590538639999
COMPOUNDNAME: Challenge-200
FORMULA: C16H12N2O4S
SMILES: OC1=CC=C2C=CC=CC2=C1N=NC1=CC=C(C=C1)S(O)(=O)=O
INCHIKEY: RDUJRVXKAIVTDH-UHFFFAOYSA-N
PRECURSORTYPE: [M+H]+
IONMODE: positive
CHARGE: 1
PARENTMASS: 328.0517778639999
NUM PEAKS: 45
75.0231     0.0035307036902481937
77.0387     0.004237750872632931
80.0495     0.015235639990387571
81.0336     0.0021618491382031984
91.0542     0.008035608429643903
92.0496     0.003307326964669169
95.0491     0.007349883290141605
101.0385    0.006318390838814317
105.0448    0.0014047827093270958
108.0444    0.1561059274970198
109.0522    0.014310263329289698
115.0542    0.0012692074782069665
119.0491    0.009566901926740139
127.0413    0.0010684918610054136
128.0495    0.8201124135182576
129.0448    0.0236633679989922
146.0601    0.12981259366376868
156.0444    0.8911604475486501
158.0602    0.007339768195402205
160.0758    0.013134069400468447
173.0142    0.4811477604181098
174.0551    0.09848575383670591
174.9922    0.00483814663859024
188.0707    0.04035966063136114
218.0841    0.0031700212489093054
219.0918    0.011048114374322163
220.076     0.001047211020138206
220.0994    0.0035763761241326074
229.0763    0.002620159754633759
230.0839    0.003295172370175798
231.0917    0.010623651213404499
232.0998    0.004819749938789256
235.0866    0.001498167076849896
247.0869    0.012597021732929979
248.0945    0.01836460343111842
249.1023    0.004523589853303315
250.0741    0.0011777596054000597
251.0008    0.0013067837160983381
279.0767    0.0011000732056805629
301.0639    0.0015277295227786886
311.0487    0.07924406250634124
312.0565    0.32910944007182336
314.0356    0.0061727417149700205
328.0512    0.0031817844242579747
329.0593    1.0


