PRECURSORMZ: 279.02729897
COMPOUNDNAME: Challenge-158
FORMULA: C10H15O3PS2
SMILES: COP(=S)(OC)Oc1ccc(SC)c(C)c1
INCHIKEY: PNVJTZOFSHSLTO-UHFFFAOYSA-N
PRECURSORTYPE: [M+H]+
IONMODE: positive
CHARGE: 1
PARENTMASS: 278.02002297
NUM PEAKS: 56
58.9951     0.009866871675076183
61.0108     0.004036675832684299
62.0187     0.0016620906389844812
77.0388     0.0010327667783309657
78.0466     0.0017088642380104734
78.9944     0.008885244877878385
79.0543     0.003129937565813056
91.0542     0.01974859095326245
92.0621     0.001044761636154456
93.01       0.0019547683431204604
93.0699     0.008861943755921272
95.0492     0.0017725417014877178
97.0107     0.026995725388074904
103.0542    0.011309653156945034
104.062     0.008110726119190045
105.0699    0.0021851933698010862
107.0492    0.0027371091453365515
109.0107    0.004493575198746543
109.0648    0.00825450892417422
110.0183    0.00386773873194171
121.0106    0.001601653056416703
122.0184    0.014623845066546709
124.982     0.011945517071030882
125.0419    0.025116654752197664
135.0262    0.005319716271475238
136.0344    0.0020505336378969473
137.0419    0.020244365716995484
138.0133    0.007376450425823799
138.0497    0.013495909563087622
142.9926    0.06477065831841486
149.0233    0.00838597320056824
152.0291    0.0010016150536608054
153.0368    0.23161577017903182
154.0444    0.0053035835050269245
155.0525    0.020849252434765743
157.0083    0.005247087090029722
168.9871    0.03859396911241606
183.0207    0.005959984646581986
185.0456    0.0020283526706519213
185.9899    0.05346944598734562
198.9979    0.005583298512282227
200.0055    0.031052795652301946
200.9771    0.008448108468039606
201.0136    0.0040966310823448895
201.0464    0.006267494087613996
213.0131    0.002221869710204235
214.9924    0.0010739872024386752
216.0005    0.4526698776499116
217.0083    0.01950764028017957
219.0238    0.0020500576514753802
219.0569    0.007361824949710448
231.024     1.0
231.9774    0.003244497977755822
247.0012    0.015962499758833546
264.0043    0.002044777375438796
279.0274    0.4800621029003947


