PRECURSORMZ: 413.119735972
COMPOUNDNAME: Challenge-111
FORMULA: C21H21ClN4OS
SMILES: ClC1=CC2=C(CC(=O)N2)C=C1CCN1CCN(CC1)C1=NSC2=C1C=CC=C2
INCHIKEY: MVWVFYHBGMAFLY-UHFFFAOYSA-N
PRECURSORTYPE: [M+H]+
IONMODE: positive
CHARGE: 1
PARENTMASS: 412.112459972
NUM PEAKS: 22
103.0541    0.0036280945192046043
109.0105    0.0015557490841719521
130.0651    0.01935491830266392
131.073     0.024122873077901306
136.0215    0.008894411534771428
139.0309    0.004748860912141993
150.0374    0.004266728225563273
151.0313    0.004801846803679043
158.0601    0.020922797407415376
159.0679    0.18956062077016297
166.0418    0.15236706585545257
177.0481    0.1592941888144138
194.0368    1.0
201.1021    0.0019458223473507023
203.0639    0.006924171295077931
205.0795    0.010742448905104342
217.0671    0.0025013665621415973
220.0904    0.03197732116794183
232.0903    0.006407518240393928
237.0789    0.011832481825811616
411.104     0.00427466216321837
413.1199    0.8469344962950335


