PRECURSORMZ: 221.096091004
COMPOUNDNAME: Challenge-175
FORMULA: C16H12O
SMILES: CC(=O)C1=C2C=CC=CC2=CC2=CC=CC=C12
INCHIKEY: NXXNVJDXUHMAHU-UHFFFAOYSA-N
PRECURSORTYPE: [M+H]+
IONMODE: positive
CHARGE: 1
PARENTMASS: 220.088815004
NUM PEAKS: 10
137.0598    0.002135119794112228
162.055     0.0011619077903320713
177.0695    0.0019970712702158137
178.0778    0.16365555552253533
179.0855    0.47200804471996527
193.1012    0.10845811515212753
202.0776    0.0070025022734432115
203.0855    0.036682481708440566
205.0651    0.002749781571142428
221.0961    1.0


