PRECURSORMZ: 147.08044094
COMPOUNDNAME: Challenge-125
FORMULA: C10H10O
SMILES: CC(=O)C=CC1=CC=CC=C1
INCHIKEY: BWHOZHOGCMHOBV-UHFFFAOYSA-N
PRECURSORTYPE: [M+H]+
IONMODE: positive
CHARGE: 1
PARENTMASS: 146.07316494
NUM PEAKS: 18
69.0335     0.006627930525017178
79.0542     0.001994796487555887
91.0542     0.025486884677204797
103.0542    0.010689909455165495
105.0334    0.0017802488459787947
105.0698    0.005869291337680353
107.049     0.00424851441674205
115.0541    0.001176204922155813
117.0699    0.0066763915531383895
119.049     0.001967586498828869
119.0855    0.022899923966098416
127.0543    0.003402190817908451
128.062     0.078551404882786
129.0698    0.9013329774940797
132.0571    0.002709583919546035
145.0647    0.00885110883887262
147.0803    1.0
155.0603    0.009347566988362924


