PRECURSORMZ: 309.06629992800003
COMPOUNDNAME: Challenge-017
FORMULA: C12H14N4O4S
SMILES: COC1=CC(NS(=O)(=O)C2=CC=C(N)C=C2)=NC(OC)=N1
INCHIKEY: ZZORFUFYDOWNEF-UHFFFAOYSA-N
PRECURSORTYPE: [M-H]-
IONMODE: negative
CHARGE: -1
PARENTMASS: 310.073575928
NUM PEAKS: 6
67.0554     0.026481086941174306
154.0621    0.03528168190007746
185.0132    0.03055547227764233
202.0255    0.025868913687439616
213.079     0.035308760653797164
309.0664    1.0


