PRECURSORMZ: 382.0831583479999
COMPOUNDNAME: Challenge-182
FORMULA: C17H14F3N3O2S
SMILES: CC1=CC=C(C=C1)C1=CC(=NN1C1=CC=C(C=C1)S(N)(=O)=O)C(F)(F)F
INCHIKEY: RZEKVGVHFLEQIL-UHFFFAOYSA-N
PRECURSORTYPE: [M+H]+
IONMODE: positive
CHARGE: 1
PARENTMASS: 381.07588234799994
NUM PEAKS: 79
65.0387     0.0011650100679747436
79.9801     0.005176962428994757
91.0542     0.005628009544045482
105.0699    0.0014875470343378243
108.0443    0.0013799743759619584
109.0284    0.0011703880934815754
115.0543    0.007541444689990055
116.0621    0.0056693463576711805
117.0573    0.001128125584026601
117.0699    0.01257028120841354
118.0652    0.005245658292188867
130.0651    0.0020324089268371807
131.073     0.0050572658278680025
138.9847    0.0011615927682795285
153.051     0.0028669832433019225
160.0557    0.0019621313628954097
165.0384    0.008153514286377927
166.0462    0.0018058928581667804
180.062     0.004991412652653559
182.0413    0.0011247884627102994
184.0176    0.0037823457802896665
184.0366    0.003179050857097152
185.0448    0.003908593926832807
187.0478    0.001753390597865389
193.0887    0.003005808461919206
201.0635    0.0018507648094082184
204.0811    0.0011078112983872873
205.0888    0.0011487982427231805
206.0965    0.006450591118743013
207.1042    0.016726502414049507
208.1122    0.0034662303731832185
221.0191    0.004064964847369037
231.0916    0.004136607873400187
232.0995    0.004999997813316938
233.1073    0.018193835993133622
235.078     0.0022707063579122016
236.0865    0.002702395253750963
242.0837    0.0018551624720092418
243.0918    0.0015856246289320326
247.0667    0.003026888086629969
254.0776    0.0022780572574698796
255.0727    0.004669671395960001
255.0858    0.0014187053922729619
256.0932    0.0013955557075975185
260.0739    0.0012970565691020517
261.0822    0.0120273800417258
262.09      0.008442098138918906
263.0979    0.01736737184117839
267.0729    0.022115886524560775
272.0617    0.0023284202128429823
273.0683    0.001866323059389243
275.079     0.007642808383295802
279.0924    0.0022891315923513522
280.0811    0.003181337155720115
281.0886    0.05046988417479975
282.0964    0.0682343029928305
283.1042    0.031259822458828884
286.072     0.0019391639018084064
287.079     0.020546221037504336
294.0794    0.0016142252285496837
299.0987    0.0020389750501406427
300.0871    0.047089472608004404
301.0948    0.056480006865212956
302.1025    0.04442869600702926
303.1104    0.07129053879579073
310.0646    0.0011809679950264137
311.0725    0.002304174756989052
312.0709    0.001324855384930566
313.1139    0.0019975665619034913
314.086     0.007741394989113719
314.123     0.0023710423101791457
315.1298    0.0034323635118596457
317.0901    0.004705987342312211
332.0767    0.02726632448802218
334.0923    0.003914866062746919
342.0709    0.010455790273575431
362.077     0.17114079838422588
365.0567    0.0012874801121175578
382.0832    1.0


