PRECURSORMZ: 251.082601624
COMPOUNDNAME: Challenge-023
FORMULA: C15H12N2O2
SMILES: NC(=O)N1c2ccccc2CC(=O)c2ccccc12
INCHIKEY: CTRLABGOLIVAIY-UHFFFAOYSA-N
PRECURSORTYPE: [M-H]-
IONMODE: negative
CHARGE: -1
PARENTMASS: 252.089877624
NUM PEAKS: 6
166.0663    0.16608460226191096
180.082     0.045000077175749754
182.0613    0.0054328052797032915
207.069     0.170556201953502
208.0768    1.0
251.0827    0.8602968252836576


