PRECURSORMZ: 389.16264634000004
COMPOUNDNAME: Challenge-137
FORMULA: C21H25ClN2O3
SMILES: OC(=O)COCCN1CCN(CC1)C(c1ccccc1)c1ccc(Cl)cc1
INCHIKEY: ZKLPARSLTMPFCP-UHFFFAOYSA-N
PRECURSORTYPE: [M+H]+
IONMODE: positive
CHARGE: 1
PARENTMASS: 388.15537034000005
NUM PEAKS: 15
58.0653     0.0013937177113348752
70.0652     0.005051454118468733
72.0808     0.07570767887363718
84.0682     0.0025425091544424155
129.0701    0.0021914480352209233
130.0732    0.001374693989440672
145.0647    0.0013117470906587817
165.0698    0.0997754058994659
166.0777    0.29571161524229217
183.0805    0.018338251945983198
187.1077    0.013620057326501763
193.0761    0.011618155468334307
199.031     0.002417147860532003
201.0465    1.0
389.1626    0.17431109736689535


