PRECURSORMZ: 356.0695096719999
COMPOUNDNAME: Challenge-062
FORMULA: C19H16ClNO4
SMILES: COc1ccc2n(C(=O)c3ccc(Cl)cc3)c(C)c(CC(O)=O)c2c1
INCHIKEY: CGIGDMFJXJATDK-UHFFFAOYSA-N
PRECURSORTYPE: [M-H]-
IONMODE: negative
CHARGE: -1
PARENTMASS: 357.0767856719999
NUM PEAKS: 27
153.0115    0.018016815847166603
154.9904    0.008619546835829026
157.0533    0.03373764040880127
158.0612    0.3061754192735272
172.0765    0.004627141072039836
243.0285    0.0020166055684074182
243.1052    0.002105947151193386
253.0301    0.023546582526480467
254.0378    0.06719892021050464
255.0457    0.215597642081351
257.0253    0.0038451837424940296
268.0538    0.02849344411599966
269.025     0.027803046783259337
269.0614    0.1354747123658162
270.0692    0.12135578440027396
271.0404    0.003390476093160482
272.048     0.02573743443242079
281.0247    0.012929454703078058
282.0327    0.5254168399942671
284.0479    0.008638033619324994
284.0855    0.009808549525622413
296.0481    0.013163127646467088
297.0561    0.48400812557998085
301.0511    0.016212841901296442
312.0797    1.0
329.046     0.008112471170701447
351.9759    0.0021308202780788697


