PRECURSORMZ: 424.154576688
COMPOUNDNAME: Challenge-016
FORMULA: C22H24ClN5O2
SMILES: ClC1=CC2=C(C=C1)N(C1CCN(CCCN3C(=O)NC4=C3C=CC=C4)CC1)C(=O)N2
INCHIKEY: FGXWKSZFVQUSTL-UHFFFAOYSA-N
PRECURSORTYPE: [M-H]-
IONMODE: negative
CHARGE: -1
PARENTMASS: 425.161852688
NUM PEAKS: 7
131.025     0.018822035668335117
133.0405    0.079263063415922
165.994     0.07269232923668408
167.0017    0.6153106964622163
190.0987    0.01780420584305533
250.0752    0.03193962150104714
424.1549    1.0


