PRECURSORMZ: 167.045118052
COMPOUNDNAME: Challenge-087
FORMULA: C7H6N2O3
SMILES: NC(=O)C1=C(C=CC=C1)[N+]([O-])=O
INCHIKEY: KLGQWSOYKYFBTR-UHFFFAOYSA-N
PRECURSORTYPE: [M+H]+
IONMODE: positive
CHARGE: 1
PARENTMASS: 166.037842052
NUM PEAKS: 10
50.0153     0.02359495815114525
51.0232     0.08352960626238815
52.0184     0.0018571570722688596
76.031      0.0016180450760936303
78.0338     0.12942427939265808
81.0335     0.0013351235408434056
92.0257     0.00530250036366102
96.0444     0.00293833138919786
120.0205    0.0016839260552854113
150.0186    1.0


