PRECURSORMZ: 552.1911306480001
COMPOUNDNAME: Challenge-181
FORMULA: C27H29N5O6S
SMILES: COC1=CC=CC=C1OC1=C(OCCO)N=C(N=C1NS(=O)(=O)C1=CC=C(C=C1)C(C)(C)C)C1=NC=CC=N1
INCHIKEY: GJPICJJJRGTNOD-UHFFFAOYSA-N
PRECURSORTYPE: [M+H]+
IONMODE: positive
CHARGE: 1
PARENTMASS: 551.1838546480001
NUM PEAKS: 140
51.0232     0.001054337449490418
52.0184     0.002661141577251025
53.0388     0.004116531609365013
57.0701     0.006398015722161177
65.0387     0.002372347946829395
67.0543     0.006644001581474477
69.0448     0.003624113428494445
77.0386     0.008596888133880619
78.0464     0.003041768849420128
79.0293     0.0026380132144191715
79.0543     0.0029520879380091356
80.0131     0.018228125427241438
80.0369     0.036601507547882606
81.0447     0.008458630511731518
91.0542     0.031006341544318024
93.0699     0.004774108448619506
94.0412     0.001036844492263713
95.0492     0.08896677414492095
97.0396     0.07787869547994611
104.0494    0.0011062902780431974
105.0447    0.0070705267909178734
105.0572    0.003550209764417925
105.0699    0.03188098535916768
106.0399    0.19137474600209922
107.0478    0.007505050553553834
108.057     0.03453494712214484
109.0522    0.012966609695746367
109.0647    0.002804612421674876
112.0267    0.0067551909126508354
117.0573    0.0034424693877969435
118.0414    0.0012662775278368535
118.0525    0.0033902454447093063
118.0777    0.0013110775186864006
119.0478    0.0011545540605619694
119.0604    0.0080398273456317
120.0444    0.02341840277983849
121.0284    0.0025188415159926284
121.0648    0.017594536154593447
122.0587    0.06405302768303306
123.044     0.03737133389753932
123.0665    0.1024538927245376
124.0505    0.06065590186398392
125.0347    0.005628596718721017
131.0604    0.006008626459850608
131.0855    0.004359393581799059
132.0444    0.004342928431913456
132.0681    0.018204317254829645
133.0522    0.02898166494214443
133.1013    0.003794546006437041
134.035     0.0011752936480643069
134.0598    0.01705365051809583
135.044     0.03691058755941994
135.0553    0.003821741087291758
135.0665    0.026350229964474017
136.0744    0.003010180634037893
143.0362    0.0013414666255040168
144.0443    0.006227233797628889
147.0552    0.037481195981440556
147.0665    0.05592665275466935
148.0617    0.004375433850697199
148.0743    0.004146123558520436
149.0458    0.08511654984552676
149.0697    0.016285974201118533
150.0536    0.024433672759738786
150.0662    0.01213396705254313
151.1117    0.011300937295551315
159.0805    0.0014884943307657754
160.0632    0.0023983803374898476
161.0469    0.002715582994444661
161.0698    0.005810449827840921
161.1073    0.04751089071133008
162.0536    0.008494659070639878
163.0504    0.0012478296000097548
163.0617    0.0014795637370578554
164.0342    0.0011818597453562801
171.0549    0.0027949669488451924
172.0394    0.0012897093770883237
174.0408    0.001071170829565156
174.0775    0.004409205819472142
175.0614    0.10133487759812701
175.0852    0.013167865703293763
176.0567    0.011806890970736787
176.0693    0.0036360937235123797
177.0407    0.010328719224723575
177.0656    0.0030996403375696977
181.068     0.003148248071364036
185.0458    0.0032436722946627074
187.0502    0.0012491649402560682
188.0566    0.0014657571282080941
189.0646    0.012477533911977177
190.0495    0.0030028618904252703
190.0724    0.011808946585418992
191.0566    0.004412503705231976
197.0632    0.018847632930019214
197.0822    0.005995722217288507
202.0723    1.0
203.0563    0.023479052854763215
203.08      0.047156782756921346
204.0516    0.010159128315784714
204.0642    0.003430510674035515
204.0875    0.0014110931543067392
205.059     0.009688254973049867
220.074     0.0038644719751737854
221.0818    0.003564105395950773
224.0927    0.00824855181675873
225.0768    0.003120586295837375
232.083     0.0010218994721332565
236.093     0.002606218628271597
237.0771    0.0010330016797771002
237.1011    0.008653785767830354
238.0851    0.0011451527256965109
239.0925    0.0011508488285855828
241.0891    0.0183305001639636
248.0929    0.00542748098934091
249.0771    0.0012113181604870716
251.0931    0.0025748367836547015
252.088     0.01078164775267362
254.1038    0.0034509197985476033
255.1115    0.01779955809140115
264.088     0.020325126215281018
265.0958    0.003352986754180101
268.0958    0.001069881349488918
276.0652    0.005451554880973435
276.088     0.021315003149244855
279.0752    0.014572062297318281
280.0829    0.47274648789329277
282.0986    0.003752234604228351
283.1065    0.00903156836062625
292.083     0.009085181597101465
293.0904    0.008086815136359551
294.0985    0.030939752577368536
306.0986    0.0014496844874251954
310.0936    0.011542180673747406
311.1013    0.11077897032803834
312.109     0.01280599254302844
324.1092    0.015101512565524743
338.1248    0.003899650772107219
400.1447    0.00500045671334081
508.1656    0.0383781979780305
552.1914    0.8498826141505493


