PRECURSORMZ: 213.986201976
COMPOUNDNAME: Challenge-116
FORMULA: C8H8BrNO
SMILES: CC(=O)NC1=CC=C(Br)C=C1
INCHIKEY: MSLICLMCQYQNPK-UHFFFAOYSA-N
PRECURSORTYPE: [M+H]+
IONMODE: positive
CHARGE: 1
PARENTMASS: 212.978925976
NUM PEAKS: 9
66.0465     0.0018684201932629646
92.0494     0.0029361559065122474
93.0573     1.0
94.0413     0.0014525463605889798
135.0678    0.062000055885538335
171.9756    0.4006145136763022
172.96      0.0024540631816310295
195.9756    0.0035789469077285997
213.9861    0.8899104552079093


