PRECURSORMZ: 322.066303432
COMPOUNDNAME: Challenge-151
FORMULA: C16H16ClNO2S
SMILES: COC(=O)C(N1CCc2sccc2C1)c1ccccc1Cl
INCHIKEY: GKTWGGQPFAXNFI-UHFFFAOYSA-N
PRECURSORTYPE: [M+H]+
IONMODE: positive
CHARGE: 1
PARENTMASS: 321.059027432
NUM PEAKS: 18
91.0542     0.006352727498799158
105.0334    0.0038517077692905837
111.0262    0.008614860671217618
123.0262    0.0015944096196870794
125.0152    0.10271537621324459
125.0416    0.005247771436945739
138.0374    0.0037621833026324695
139.045     0.0047850975847408194
148.0519    0.002941734368402895
152.0261    0.3112904243610837
154.0418    0.02880058896255159
155.0258    0.3671022079297488
183.0208    0.22361803558477153
184.0524    0.6797171285911604
201.0312    0.004340498632680249
212.0473    0.730766500313236
262.0456    0.004973532181106452
322.0664    1.0


