PRECURSORMZ: 428.89118766999997
COMPOUNDNAME: Challenge-193
FORMULA: C9H15Cl6O4P
SMILES: O=P(OC(CCl)CCl)(OC(CCl)CCl)OC(CCl)CCl
INCHIKEY: ASLWPAWFJZFCKF-UHFFFAOYSA-N
PRECURSORTYPE: [M+H]+
IONMODE: positive
CHARGE: 1
PARENTMASS: 427.88391167
NUM PEAKS: 12
74.9997     0.13096438438416427
80.9737     0.0015625681709171208
98.9843     1.0
116.9948    0.0038409072036128173
131.0105    0.006201678811792712
136.9998    0.0032338986646296146
172.9769    0.004396362539877502
180.0809    0.002449039873456801
208.9534    0.2008471291967097
240.9797    0.002320018580172525
318.9226    0.20190608563570542
428.8919    0.056711758894189335


