PRECURSORMZ: 195.06628286400002
COMPOUNDNAME: challenge-075
FORMULA: C10H12O4
SMILES: c1c(ccc(c1)CCC(C(=O)O)O)O
INCHIKEY: NDXWYVRAUFPPEJ-UHFFFAOYSA-N
PRECURSORTYPE: [M-H]-
IONMODE: negative
CHARGE: -1
PARENTMASS: 196.073558864
NUM PEAKS: 11
93.03       0.06160471865930157
121.0693    0.03398558187435633
131.0461    0.07265237337327965
147.0292    0.34168149049714447
148.0464    0.03375152139312798
149.0608    0.4905439565583748
150.065     0.054770152607433766
151.0581    0.013575507911244266
177.0295    0.04053927534875012
177.0541    0.04063289954124146
195.0661    1.0


