PRECURSORMZ: 777.2247531239999
COMPOUNDNAME: challenge-121
FORMULA: C36H42O19
SMILES: O([C@@H]1O[C@@H]([C@@H](O)[C@H](O)[C@H]1O)CO)c1ccc(/C=C/C(=O)O[C@H](C2=CC3(OC2=O)[C@H]2[C@H](O[C@@H]4O[C@@H]([C@@H](O)[C@H](O)[C@H]4O)CO)OC=C([C@H]2C=C3)C(=O)OC)C)cc1
INCHIKEY: AFYIWKNGSIYXCQ-VMPITWQZSA-N
PRECURSORTYPE: [M-H]-
IONMODE: negative
CHARGE: -1
PARENTMASS: 778.232029124
NUM PEAKS: 49
59.0033     0.0021224531357892694
89.0204     0.004123986902523078
119.0495    0.019706675067380726
163.0395    0.07284437358993695
164.037     0.007792935126758501
179.0543    0.008960761664741503
184.0615    0.0017024174327545114
211.0306    0.0017501487626448247
213.0576    0.004528112162261065
239.0346    0.007076965178403801
245.0813    0.0038471451891592605
257.0332    0.001880614397678348
271.0616    0.010144498646021275
272.0631    0.0020810859832176643
289.0712    0.007076965178403801
391.1169    0.0020047158553931628
453.1202    0.01088592530365081
454.1252    0.003436655752102565
615.171     1.0
615.317     0.0031948170139916438
615.7221    0.0032775513191348536
615.7922    0.003548028855179963
616.1744    0.33744777396987835
616.3951    0.008897119891554419
616.5682    0.008527997607069328
616.6384    0.014675792896941693
616.7643    0.010507256753187656
616.9654    0.013262945532188418
617.1792    0.08657508615505044
617.455     0.006806487642358691
617.8035    0.012206492097282815
618.1776    0.024158417101817292
618.3661    0.0072265233453934485
618.4333    0.007461997906185662
618.7255    0.005310905972462205
618.8195    0.0054763745827486245
619.1628    0.006520099663016811
619.1813    0.006539192194972936
619.3213    0.003462112461377399
619.5984    0.0034971154366302956
619.8631    0.0035384825892019003
620.5639    0.002902064857331055
620.7642    0.0020715397172396013
620.9468    0.0024374799130653375
621.2594    0.0019569845255028493
621.7305    0.0018042442698538467
621.9997    0.0018424293337660973
669.0912    0.0024756649769775885
777.2242    0.08504768359856041


