PRECURSORMZ: 443.1922712239999
COMPOUNDNAME: challenge-085
FORMULA: C21H32O10
SMILES: C1CC(C2C(C1O)(CC(C(C2O)C(=C)C(=O)OC)OC(=O)C(=C)C(CO)O)C)(CO)O
INCHIKEY: RRUQYJBEEQBWGK-UHFFFAOYSA-N
PRECURSORTYPE: [M-H]-
IONMODE: negative
CHARGE: -1
PARENTMASS: 444.1995472239999
NUM PEAKS: 20
101.0282    0.05284785932721712
131.0346    0.5041093272171253
163.0773    0.04625382262996942
223.0968    0.07865061162079509
253.1443    0.042909021406727824
297.1352    1.0
298.1362    0.21397171253822628
299.1385    0.036123853211009166
315.1414    0.11400993883792047
329.1599    0.16198394495412843
330.1646    0.021406727828746173
349.1642    0.014717125382262997
393.1555    0.0191131498470948
394.1557    0.010129969418960244
411.1658    0.043291284403669715
412.1702    0.011372324159021407
425.1817    0.014717125382262997
426.1824    0.006785168195718653
429.1638    0.013761467889908256
443.1913    0.5834288990825688


