PRECURSORMZ: 403.21261274399996
COMPOUNDNAME: challenge-095
FORMULA: C23H32O6
SMILES: C(=C(C)C)Cc1c(OC)c(c2c(c1O)C(=O)C(C(O2)C)C)C(CC(=O)O)CCC
INCHIKEY: UDVTWMLZUGXNQM-UHFFFAOYSA-N
PRECURSORTYPE: [M-H]-
IONMODE: negative
CHARGE: -1
PARENTMASS: 404.21988874399995
NUM PEAKS: 35
231.0735    0.008847967662250168
233.1137    0.015369413878284301
271.0689    0.016429373456097015
272.068     0.020687177183920952
273.1148    0.04018863687401751
275.1316    0.007222097462384909
289.1453    0.04715921850437907
290.1471    0.008353918706490007
301.1473    0.02941836963844599
315.1368    0.08592858746912194
330.1804    0.06398383112508421
331.1724    0.012045811812261397
345.1355    0.03189759712553335
346.1395    0.006575342465753425
359.2209    0.05719290366045363
360.2182    0.013797439928138333
369.1682    0.016698854704693466
371.1854    1.0
371.5159    0.009225241410285202
371.8411    0.008623399955086458
372.1909    0.2979474511565237
372.4242    0.011291264316191332
372.5679    0.009809117448910847
372.7572    0.009440826409162361
372.8362    0.01135414327419717
372.9631    0.009997754322928362
373.1965    0.0562407365820795
373.5449    0.008650348079946104
373.6164    0.007913766000449135
373.7663    0.009494722658881653
373.9877    0.006754996631484393
374.199     0.013141702223220302
375.0165    0.0060812935099932635
399.1491    0.011174489108466202
403.213     0.24975522119919155


