PRECURSORMZ: 409.1129228399999
COMPOUNDNAME: challenge-142
FORMULA: C19H20O10
SMILES: O[C@H]1[C@@H](O[C@@H]([C@@H](O)[C@@H]1O)CO)c1c(cc(c(c1O)C(=O)c1ccc(cc1)O)O)O
INCHIKEY: BZYKNVLTMWYEFA-UHFFFAOYSA-N
PRECURSORTYPE: [M+H]+
IONMODE: positive
CHARGE: 1
PARENTMASS: 408.1056468399999
NUM PEAKS: 36
121.0298    0.18738933275750377
130.1553    0.007298639602677607
177.019     0.37477866551500755
195.0309    0.7774130857266249
231.0288    0.6243144029367307
232.0256    0.09419131936946663
233.0381    0.06853811271863527
247.063     0.07454113582379615
249.0441    0.06987691643273591
259.061     0.2920319585402721
260.061     0.0503562945368171
261.0417    0.23770244007773697
271.0621    0.5618656877564241
272.0607    0.099201036493198
279.0502    0.12217663571582811
289.0718    0.28028503562945367
290.074     0.050572230619736556
297.0611    0.05126322608507882
313.0713    1.0
314.0751    0.23442021161736123
325.072     0.6852947527531851
326.0761    0.15413517598790757
337.0723    0.24612394731159576
338.0707    0.05812999352191751
343.0775    0.0948823148348089
355.0819    0.39572446555819474
356.0842    0.09358669833729216
373.0919    0.33750809760310946
374.0951    0.08352407687324552
391.1021    0.6158497084862881
392.1058    0.15128481969337076
392.5232    0.008335132800690996
393.112     0.04720362772619305
394.088     0.010926365795724466
402.0064    0.11578492766141223
409.1133    0.5204923342690564


