PRECURSORMZ: 387.1438290439999
COMPOUNDNAME: challenge-220
FORMULA: C21H22O7
SMILES: c1(c2c(cc3c1occ3)ccc(=O)o2)OCC(C(C)(C)OC(=O)/C(=C\C)/C)O
INCHIKEY: QPQHCRKTYXPSQG-XGICHPGQSA-N
PRECURSORTYPE: [M+H]+
IONMODE: positive
CHARGE: 1
PARENTMASS: 386.1365530439999
NUM PEAKS: 138
55.0483     0.01065965984975608
67.0535     0.005065206359682576
83.0467     0.08440557764211064
84.0488     0.005021621301885677
85.0556     0.003779447154674031
91.0511     0.004451902332111914
167.1063    0.1022131869705583
168.1079    0.013386839180476385
171.0787    0.03463766807487913
173.0217    0.1558850724290264
177.0278    0.007228893157457248
185.114     0.05612821478716483
186.0388    0.009482863289239784
186.1135    0.009476636852411654
191.0369    0.007431252354371426
199.0748    0.11483728763958893
199.9009    0.002057837371696486
200.078     0.023616874889091595
201.0179    0.2631572393224391
201.5982    0.0018336856458838584
201.7854    0.0015317034597196236
202.0216    0.04438826814772844
202.4715    0.002085856337423065
202.8556    0.0023318005921341427
203.0335    0.3502215054901607
203.4699    0.0018928367957510796
203.6645    0.002135667832048093
203.8191    0.0024251971445560707
204.0396    0.050785931988630524
204.346     0.0018492517379541796
204.7945    0.0015161373676493024
205.0439    0.007449931664855812
213.0803    0.015643922530672986
215.04      0.011444190890100278
226.0602    0.003879070143924087
227.0702    0.2629797858728375
227.9746    0.003978693133174145
229.9809    0.0047258655525495704
240.9773    0.006712098900722578
241.0864    0.14886787812372554
242.0906    0.030235577237392248
243.0857    0.007935593737449839
244.1138    0.0022197247292278285
257.9581    0.005435679350956225
268.8037    0.0019582143824464293
268.9602    0.002179252889844993
269.0812    1.0
269.2696    0.0037576546257755807
269.506     0.005233320154042047
269.6339    0.002428310362970135
269.8339    0.0057750201580892314
269.863     0.0057750201580892314
270.0869    0.20968148662405708
270.2362    0.008763709835590936
270.4304    0.010167771340333925
270.5755    0.008735690869864358
270.7165    0.008916257537880085
270.7789    0.008928710411536343
271.0872    0.023121873161255378
271.3006    0.00500294199140129
271.4937    0.003854164396611573
271.6222    0.002394064960415428
271.7819    0.0019457615087901724
271.9609    0.003860390833439702
272.0675    0.004355392561275922
272.1093    0.0042837885377524434
272.4516    0.0019270821983057866
273.9683    0.005071432796510705
274.284     0.0016437793226259374
274.9817    0.005301810959151462
285.0964    0.004137467272291423
287.0913    0.11178322037539187
287.7483    0.0008934936848364471
288.098     0.02330866626609923
288.3976    0.0010398149502974681
288.6246    0.0008000971324145189
288.8298    0.0008748143743520615
289.1083    0.004246429916783672
297.9831    0.004268222445682122
298.9853    0.0043118075034790215
299.9772    0.0024563293286967137
301.9521    0.004190391985330515
314.0418    0.003679824165423974
315.011     0.01031720582420901
316.0001    0.0023909517420013637
317.0204    0.00471029946047925
321.5396    0.0006942477063363334
339.0082    0.0028174626647281694
341.0135    0.028087456531687895
342.0124    0.0067961557979023144
343.018     0.013825802976859449
343.0545    0.013788444355890677
344.021     0.004819262104971499
355.9951    0.02774188928772676
357.0061    0.034357478417613344
358.0199    0.008057009255598345
359.0222    0.01433637079676599
360.0275    0.002260196568610664
361.0239    0.010326545479451202
362.0159    0.0014756655282664665
363.0156    0.004196618422158644
363.5705    0.0008094367876567116
364.0554    0.0031599166902752398
368.5597    0.0008841540295942542
368.7633    0.0016468925410400017
369.0003    0.010603621918302924
369.1333    0.7226464847094278
369.3281    0.003782560373088095
369.4085    0.0036860506022521025
369.5503    0.004906432220565298
369.6133    0.005217754061971726
369.845     0.0030976523219939543
369.8869    0.003106991977236147
370.1374    0.19044179682513987
370.3254    0.006372758093589572
370.5789    0.004489260953080685
370.5983    0.004498600608322878
370.7459    0.005977379355003409
370.9044    0.004408317274315014
371.14      0.02965029217554816
371.3312    0.005385867856331197
371.5133    0.0022321776028840857
371.5547    0.002225951166055957
371.8566    0.0021730264530168642
371.8838    0.0021481207057043503
372.1406    0.005653604639940724
372.3064    0.0018834971405088867
372.3466    0.0018834971405088867
372.6208    0.0018928367957510796
372.7464    0.0016686850699384518
373.1433    0.0018336856458838584
373.4581    0.0006568890853675622
373.6594    0.001105192536992818
373.92      0.0021201017399777714
374.0159    0.002303781626407564
374.6766    0.0005105678199065412
375.0988    0.001715383346149416
387.143     0.14034077288760347


