PRECURSORMZ: 797.2651259480001
COMPOUNDNAME: challenge-187
FORMULA: C40H44O17
SMILES: C1(C(C(OC1c1ccc(cc1)O)c1ccc(cc1)O)c1cc(c(c(c1)O)C1OC(C(C(C1O)O)O)CO)O)c1cc(c(c(c1)O)C1OC(C(C(C1O)O)O)CO)O
INCHIKEY: ISHUKYBHEZATMQ-UHFFFAOYSA-N
PRECURSORTYPE: [M+H]+
IONMODE: positive
CHARGE: 1
PARENTMASS: 796.2578499480001
NUM PEAKS: 94
199.0771    0.3000595480615539
200.0781    0.0472936973078008
253.0859    0.03174851913373241
271.0984    0.03250070517441314
295.1052    0.02792490676027204
357.0715    0.008994891403140377
357.5618    0.0011282790610210927
377.1272    0.024916162597549127
391.1351    0.07816466606073903
392.1394    0.021249255649230577
403.1094    0.033158867960008775
407.1335    0.0350393330617106
409.1096    0.05597517786065754
410.1047    0.017833077381138936
418.0995    0.007803930172062557
426.0873    0.003384837183063278
427.0907    0.09816027830883506
427.1207    0.09797223179866488
428.1242    0.029147209076378227
439.1241    0.02723540288964804
445.1259    0.06409251888300373
469.1296    0.10668505343654998
479.1475    0.025104209107719308
483.1574    0.03250070517441314
493.1248    0.06271351114175573
497.1685    0.03237534083429969
499.1467    0.023662519196414582
503.1535    0.0994139217099696
504.1543    0.035258720656909145
511.1439    0.15037452596608897
512.1429    0.03955244930579497
521.1613    0.11207572006142855
522.1684    0.03601090669758988
523.161     0.031873883473845864
529.1508    0.1216034099100511
530.158     0.045883348481524436
535.1577    0.03500799197668224
539.174     0.07167706145986774
540.1801    0.027517472654903313
545.1619    0.118406619237158
546.1697    0.040774751621901154
547.1637    0.07926160403673176
553.1578    0.06597298398470555
563.1698    0.1250509292631711
564.1777    0.0476384492431128
565.1759    0.06271351114175573
566.1755    0.020277682013351304
571.1701    0.03052621681762623
587.1732    0.05957940263891936
588.1692    0.02363117811138622
589.1684    0.023662519196414582
599.1872    0.018083806061365847
605.1822    0.10032281317579216
606.1829    0.04406556554987934
613.1664    0.021562666499514212
617.2018    0.043689472529538975
618.2087    0.016704798320117842
623.188     0.06415520105306045
624.1943    0.028050271100385497
629.1842    0.02303569749584731
631.1748    0.03096499200802332
635.2124    0.010405240229416744
641.2006    0.09725138684301252
642.2047    0.0258877362334284
647.1913    0.04234180587331934
648.1941    0.020810480458833488
649.1944    0.03654370514307206
659.2137    0.1816842699094243
660.2132    0.07430971260225029
661.2205    0.024884821512520767
665.2006    0.03757796094900806
668.2014    0.018804651017018212
677.2247    0.012724480521515657
678.22      0.005390666624878553
683.1985    0.01632870529977748
685.2154    0.112545836336854
686.221     0.03137242611339205
689.2       0.023975930046698218
701.2126    0.004481775159056007
725.2211    0.029836712947002228
726.215     0.017551007615883664
728.148     0.014166170432820386
730.1344    0.1023599837026358
731.1396    0.08737894505907795
732.1485    0.019807565737925848
743.2315    0.036042247782618234
744.2411    0.014604945623217477
761.2447    0.08214498385934123
762.2491    0.042937286488858244
779.2569    1.0
780.2599    0.46027517472654905
781.2644    0.15623530886639297
782.2655    0.03359764315040587
797.2669    0.2718212304509982


