PRECURSORMZ: 271.06009942
COMPOUNDNAME: challenge-007
FORMULA: C15H10O5
SMILES: c1cc(ccc1c1cc(=O)c2c(cc(cc2o1)O)O)O	
INCHIKEY: KZNIFHPLKGYRTM-UHFFFAOYSA-N
PRECURSORTYPE: [M+H]+
IONMODE: positive
CHARGE: 1
PARENTMASS: 270.05282342
NUM PEAKS: 16
67.0206     0.017
69.0076     0.021
91.0503     0.034
119.0488    0.063
121.0278    0.034
141.0705    0.011000000000000001
145.029     0.066
153.0183    0.384
163.0368    0.022000000000000002
169.0525    0.015
197.0624    0.02
225.0558    0.038
229.0495    0.034
243.0662    0.051
253.0491    0.011000000000000001
271.0612    1.0


