PRECURSORMZ: 347.14891442399994
COMPOUNDNAME: challenge-034
FORMULA: C19H22O6
SMILES: C[C@]12C3[C@@H](CC4C(CCC5=C4OCC5=O)[C@]43CC[C@@]2(O)OC4)OC1=O	
INCHIKEY: KGRQDFZHUBOWKM-PNMPORGGSA-N
PRECURSORTYPE: [M+H]+
IONMODE: positive
CHARGE: 1
PARENTMASS: 346.14163842399995
NUM PEAKS: 13
147.0452    0.015
225.1116    0.015
229.1284    0.013999999999999999
239.1405    0.024
243.1334    0.037000000000000005
257.152     0.05
267.1365    0.057
273.1476    0.05
285.1495    0.44299999999999995
303.1583    0.064
311.1252    0.011000000000000001
329.1352    0.017
347.149     1.0


