PRECURSORMZ: 257.081932928
COMPOUNDNAME: challenge-017
FORMULA: C15H14O4
SMILES: c1cc(ccc1CCC(=O)c1ccc(cc1O)O)O	
INCHIKEY: UDGKKUWYNITJRX-UHFFFAOYSA-N
PRECURSORTYPE: [M-H]-
IONMODE: negative
CHARGE: -1
PARENTMASS: 258.089208928
NUM PEAKS: 7
65.04       0.035035035035035036
107.0509    0.08408408408408408
109.0308    0.05405405405405406
135.0091    0.02102102102102102
151.04      1.0
163.041     0.02402402402402402
257.0825    0.15315315315315314


