PRECURSORMZ: 330.13359870799997
COMPOUNDNAME: challenge-223
FORMULA: C18H19NO5
SMILES: c1cc(ccc1C(CNC(=O)/C=C/c1ccc(c(c1)OC)O)O)O
INCHIKEY: VJSCHQMOTSXAKB-YCRREMRBSA-N
PRECURSORTYPE: [M+H]+
IONMODE: positive
CHARGE: 1
PARENTMASS: 329.126322708
NUM PEAKS: 7
145.0288    0.4955110907455492
177.0547    1.0
178.059     0.1262155694720228
312.1235    0.4793544116898325
313.1271    0.09819595064745515
314.6429    0.0032245472905317106
330.1334    0.05722722875617331


