PRECURSORMZ: 593.1511942599998
COMPOUNDNAME: challenge-083
FORMULA: C27H30O15
SMILES: Oc1ccc(c2cc(=O)c3c(cc(c(c3o2)C2OC(C(O)C(O)C2OC2OC(C(O)C(O)C2O)CO)CO)O)O)cc1
INCHIKEY: FYTOTHFWELWOCG-UHFFFAOYSA-N
PRECURSORTYPE: [M-H]-
IONMODE: negative
CHARGE: -1
PARENTMASS: 594.1584702599998
NUM PEAKS: 6
353.0671    0.016710319032753773
413.0878    0.41178517237046847
414.0926    0.09702422947936097
415.0901    0.022866752360610424
563.1418    0.01569552233035982
593.1516    1.0


