PRECURSORMZ: 337.14453318399995
COMPOUNDNAME: challenge-038
FORMULA: C21H22O4
SMILES: C=CC(C)(C)c1cc(/C=C/C(=O)c2ccc(cc2)O)c(cc1O)OC	
INCHIKEY: KAZSKMJFUPEHHW-DHZHZOJOSA-N
PRECURSORTYPE: [M-H]-
IONMODE: negative
CHARGE: -1
PARENTMASS: 338.15180918399994
NUM PEAKS: 30
92.0248     0.065
93.0327     0.045
120.0205    0.046
161.0601    0.069
172.0535    0.019
185.0634    0.02
187.0387    0.066
187.0753    0.122
200.0793    0.013000000000000001
201.0902    0.147
202.0983    0.013999999999999999
213.0546    0.045
217.1225    0.037000000000000005
229.0862    0.258
237.0534    0.087
243.1013    0.13
262.0984    0.016
267.0646    0.021
268.073     0.124
277.1224    0.062
281.0818    0.183
289.0905    0.036000000000000004
290.0947    0.03
291.0951    0.011000000000000001
293.1234    0.01
305.118     0.353
307.0966    0.21
321.1111    0.055999999999999994
322.1201    0.04
337.143     1.0


