PRECURSORMZ: 271.06009942
COMPOUNDNAME: challenge-006
FORMULA: C15H10O5
SMILES: c1cc(c(cc1c1cc(=O)c2ccc(cc2o1)O)O)O	
INCHIKEY: PVFGJHYLIHMCQD-UHFFFAOYSA-N
PRECURSORTYPE: [M+H]+
IONMODE: positive
CHARGE: 1
PARENTMASS: 270.05282342
NUM PEAKS: 20
81.0327     0.054000000000000006
109.0299    0.022000000000000002
115.0169    0.011000000000000001
117.0347    0.013999999999999999
135.0426    0.076
137.0226    0.342
139.0572    0.016
141.0681    0.062
155.0365    0.011000000000000001
157.0648    0.03
161.0243    0.308
169.064     0.037000000000000005
185.0618    0.019
197.0614    0.08900000000000001
211.0404    0.011000000000000001
215.0699    0.013999999999999999
225.0552    0.078
243.0637    0.027000000000000003
253.0477    0.057
271.0614    1.0


