PRECURSORMZ: 318.169984216
COMPOUNDNAME: challenge-147
FORMULA: C18H23NO4
SMILES: [C@H]12c3c(CN4[C@@H]1C(=C[C@@H]([C@H]2O)OC)CC4)cc(c(c3)OC)OC
INCHIKEY: VOIMPDXOQJYVDI-UHFFFAOYSA-N
PRECURSORTYPE: [M+H]+
IONMODE: positive
CHARGE: 1
PARENTMASS: 317.162708216
NUM PEAKS: 14
110.059     0.0016223201284746446
138.0911    0.002900511744848607
163.0734    0.021513884532008636
193.087     0.09447615212821245
237.1158    0.09862676336599824
254.1191    0.035236886830880734
258.1474    0.019584892056015695
266.1174    0.007807269305141327
268.1351    0.09802278271210724
269.1385    0.028199809909964742
271.1224    0.08426700626922555
286.1442    0.2383991235257488
287.1493    0.04951704957791584
318.168     1.0


