PRECURSORMZ: 331.19148337599995
COMPOUNDNAME: challenge-077
FORMULA: C20H28O4
SMILES: C12(C(=CCCC1C(CCc1cocc1)(C(CC2)C)C)C(=O)O)CO
INCHIKEY: PHKSUFCCGLWIMC-UHFFFAOYSA-N
PRECURSORTYPE: [M-H]-
IONMODE: negative
CHARGE: -1
PARENTMASS: 332.19875937599994
NUM PEAKS: 8
257.1785    0.008294253007485946
291.184     0.00774081733710058
301.1792    0.4308933616847747
302.1844    0.10702426378491743
302.6291    0.00492266464711194
303.3525    0.0043765110250211185
303.5723    0.0037866651131630304
331.1905    1.0


