PRECURSORMZ: 273.07574948399997
COMPOUNDNAME: challenge-032
FORMULA: C15H12O5
SMILES: c1ccc(cc1)[C@@H]1[C@H](C(=O)c2c(cc(cc2O1)O)O)O	
INCHIKEY: SUYJZKRQHBQNCA-LSDHHAIUSA-N
PRECURSORTYPE: [M+H]+
IONMODE: positive
CHARGE: 1
PARENTMASS: 272.068473484
NUM PEAKS: 12
69.0314     0.011000000000000001
121.0258    0.042
131.0886    0.011000000000000001
149.0221    0.345
153.0164    0.515
153.07      0.02
181.0663    0.023
199.0738    1.0
209.0587    0.04
227.0694    0.823
255.0651    0.2
273.076     0.046


