PRECURSORMZ: 365.1969626799999
COMPOUNDNAME: challenge-120
FORMULA: C20H30O6
SMILES: C1(C(O)C2(C3(C(C1)C(C(CC3)C)(C)CCC1=CC(OC1=O)O)C)CO2)O
INCHIKEY: IJOCZMKYIFYFQK-UHFFFAOYSA-N
PRECURSORTYPE: [M-H]-
IONMODE: negative
CHARGE: -1
PARENTMASS: 366.2042386799999
NUM PEAKS: 23
201.1193    0.004591880938399484
203.1439    0.03939198490551507
205.1325    0.005833710374570414
227.1545    0.004688146786164673
231.1723    0.017616650141029467
233.1813    0.011243851018973999
235.2066    0.006074374993983385
245.1928    0.1791892490301216
247.2011    0.018020966701643257
257.1787    0.02206413230778117
260.1821    0.004745906294823785
263.202     0.026579000567968504
267.1713    0.0068156220217753345
273.1844    0.08842980775710202
275.2005    0.026858171526487548
286.1836    0.0047747860491533425
293.2145    0.009039363105151186
303.1976    0.02743576661307868
304.2005    0.004659267031835116
321.2065    0.17548301389116186
322.2091    0.03749554770454086
323.2008    0.0062187737656311665
365.1965    1.0


