PRECURSORMZ: 717.326938356
COMPOUNDNAME: challenge-231
FORMULA: C41H48O11
SMILES: c1cc(cc2c1OCO2)C(C(Oc1c(cc(cc1)C1C(C(C(O1)c1ccc(c(c1)OC)OC(C(c1cc(c(cc1)OC)OC)O)C)C)C)OC)C)O
INCHIKEY: GSWZMFDCPMPHDL-UHFFFAOYSA-N
PRECURSORTYPE: [M+H]+
IONMODE: positive
CHARGE: 1
PARENTMASS: 716.319662356
NUM PEAKS: 296
104.0629    0.007162877608221738
107.0511    0.02581967509940394
119.0554    0.02551548818378684
131.0572    0.022364980843466865
132.0503    0.007257030701150841
135.0497    0.07038305823730925
137.0604    0.06730497635308859
138.0415    0.009596372933158548
146.0681    0.006981813967973464
148.066     0.011399766790031362
149.0632    0.08866324335677504
150.072     0.016020510889167325
151.0771    0.08058056245609206
152.0719    0.008966271465094551
161.0639    0.024074221607410573
162.0647    0.0701585393234014
163.0793    0.10075105197974984
164.0823    0.022241857568098038
171.0817    0.03701665061235723
175.0772    0.13198090864977222
176.0789    0.01649127635381284
177.0985    0.10770389576528358
178.1       0.08128308938025537
179.1009    0.08778689533797339
188.0828    0.027108848217971656
189.0932    0.0732221361164022
191.1057    0.03663279569503089
193.0912    0.05555756737378054
194.0882    0.01758490074091242
200.0746    0.009886074757555785
202.0963    0.02810831951214213
203.1084    0.24345817067782985
204.1071    0.03839273427824412
205.1121    0.013811534478138376
215.1075    0.04926379523875052
216.11      0.006938358694313878
217.1206    0.026587384934056626
221.1178    0.29150521825411196
222.1223    0.043216269654458156
222.4479    0.0018830618585820545
226.0997    0.05225496657565201
241.1227    0.6820884604520797
241.7969    0.0041210084520507265
242.125     0.1396000666314196
242.3688    0.004077553178391141
242.5495    0.0037806088083839713
242.8468    0.004417952822057897
244.132     0.005207390293540374
247.136     0.014369210490103063
257.1151    0.011660498431988875
259.1334    0.8157713673201857
259.6796    0.004084795724001072
259.8543    0.006981813967973464
260.1391    0.16837470033967541
260.5045    0.005192905202320512
260.7382    0.004063068087171279
261.1419    0.03018693010219232
261.4444    0.0038023364452137638
269.0832    0.058490798345802585
270.0806    0.010248202038052335
276.1289    0.006163406314051263
279.1339    0.018330882938735308
280.0709    0.0051059946550013405
280.5771    0.001455751667596127
281.1205    0.009111122377293172
281.5701    0.0012819305729577831
282.0693    0.004446923004497621
282.5677    0.0005142207383050995
283.1432    0.02805037914726268
284.11      0.01596981306989781
285.1139    0.013782564295698654
286.1128    0.0028970182439723917
297.1099    0.10219956110173603
298.1162    0.020634012442693358
300.1342    0.002621801510795015
306.1226    0.015419379603543054
307.1115    0.025855887827453596
310.1312    0.00961810056998834
311.1225    0.1315753260956161
311.14      0.1325603122985667
312.133     0.0213220542756368
313.1165    0.10669718192550319
313.1429    0.11216530386100107
314.1484    0.01789633020213945
321.1538    0.07921172133581512
322.1331    0.03390959854569684
325.1449    0.077125868200155
326.148     0.01730968400773504
327.1558    0.14423529582177544
328.1702    0.02064849753391322
329.1431    0.016715795267720702
331.1334    0.04911170178094197
337.1445    0.25879063973405375
338.1518    0.09009002484193146
339.016     0.0072208179731011865
339.1672    0.0827605686846813
340.1708    0.01775872183555076
341.0283    0.010986941690265295
341.0506    0.016302970167954633
341.1658    0.04969110542973645
342.06      0.004975628834022583
343.0567    0.009313913654371238
349.1428    0.023849702693502714
353.1759    0.15398376221274254
354.1829    0.03985572849145017
355.1988    0.056419430301362324
356.2024    0.011218703149783087
363.1605    0.4158162711029673
363.9501    0.00509875210939141
364.1646    0.10818190377553903
364.5614    0.004758352465724654
364.9724    0.005200147747930443
365.1727    0.0927914943544357
365.5519    0.003353298617398043
366.1732    0.02627595547282959
369.1405    0.010327870039761575
369.6292    0.001455751667596127
377.1091    0.0029622011544617704
377.1947    0.013007611915436038
377.6094    0.0005142207383050995
378.122     0.0041210084520507265
378.6213    0.001028441476610199
379.0942    0.0015571473061351605
379.1892    0.1310828329941408
379.6118    0.0012819305729577831
380.1948    0.034568670196200565
381.1703    0.45278946644166496
381.9495    0.0032881157069086643
382.1768    0.12684594381233116
382.9411    0.004388982639618173
384.0632    0.00540293902500851
385.0868    0.006561746322597466
395.1812    0.030056564281213564
396.1787    0.009712253662917442
397.201     0.2804675787445772
398.2049    0.08019670753876573
399.1848    0.03319258653031368
401.1266    0.023552758323495543
402.0963    0.006844205601384775
403.2114    0.08681639422624264
413.1626    0.00792334489726449
421.2014    0.023393422320077063
429.1367    0.15399824730396242
430.1074    0.04480962968864297
430.1407    0.04793840939213315
431.1476    0.012746880273478523
445.1885    0.11335308134102974
446.1912    0.03904456338313791
453.1627    0.013029339552265831
454.2047    0.007054239424072774
457.163     0.010233716946832474
458.157     0.005344998660129063
459.207     0.03235969378517162
460.2239    0.011211460604173155
461.1995    0.03180201777320693
462.1979    0.00879969291606614
463.1986    0.012848275912017556
469.1899    0.01902616731728868
470.2058    0.006177891405271124
475.1968    0.011617043158329291
485.1984    0.14424253836738538
486.2028    0.049582467245587486
487.212     0.12146473242415244
488.2135    0.04155048416417403
499.2301    0.009198032924612343
503.2311    0.15499771859813288
504.2307    0.054941950996936405
505.2273    0.039421175754854314
506.2258    0.010827605686846813
507.2406    0.0024841931442063257
513.2246    0.019250686231196544
514.2366    0.005866461944044093
521.2421    0.042166100541018166
522.2439    0.00843032308995966
523.1987    0.006119951040391677
523.2295    0.0058519768528242306
525.2288    0.16331940350394358
526.2325    0.05652806848551129
527.2356    0.016194331983805668
527.25      0.017867360019699723
531.2393    0.023031295039580513
539.1889    0.010306142402931784
541.2587    0.07907411296922642
542.2606    0.027210243856510687
543.2401    0.1608279678141273
544.244     0.05865013434922106
545.23      0.0371252887965062
546.2274    0.008017497990193594
557.27      0.01242820826664156
577.1781    0.013405951923982242
580.1627    0.005163935019880788
588.2028    0.004758352465724654
592.1872    0.00843032308995966
593.1733    0.009386339110470548
593.1946    0.00998747039609482
594.1929    0.011363554061981706
595.194     0.015940842887458083
596.1953    0.011450464609300878
598.1805    0.004193433908150037
598.236     0.00614167867722147
603.4056    0.02372657941813389
604.4177    0.011863289709066945
620.1947    0.0032736306156888025
620.4366    0.04777183084310474
621.433     0.01969248151340233
622.4349    0.006163406314051263
625.3908    0.06897076184337271
626.3951    0.024668110347424915
627.3818    0.00798128526214394
631.256     0.00814062126556242
647.3632    0.008495506000449038
647.4285    0.00843032308995966
648.4451    0.005540547391597199
649.2977    0.0076915834377467
651.1955    0.012457178449081284
651.2691    0.012399238084201835
652.248     0.005439151753058165
661.2853    0.027203001310900757
661.2997    0.027260941675780203
662.2863    0.014796520681088991
662.3099    0.014825490863528712
663.2959    1.0
663.7996    0.001376083665886886
664.0518    0.00680799287333512
664.1249    0.006822477964554982
664.3006    0.443127910598017
664.4776    0.023560000869105476
664.7073    0.008082680900682973
664.7672    0.008234774358491523
665.0697    0.007611915436037458
665.3043    0.1749654168447126
665.4869    0.016455063625763183
665.7456    0.008669327095087382
665.7924    0.00844480818117952
666.0231    0.006779022690895396
666.3115    0.048076017758721834
666.5089    0.005272573204029752
666.8524    0.005518819754767406
667.0512    0.004323799729128794
667.0809    0.004309314637908932
667.3165    0.016158119255756012
667.5404    0.0032953582525185954
667.8712    0.004830777921823963
667.9379    0.0045845313710863094
668.1183    0.004055825541561349
668.3344    0.003838549173263419
668.6317    0.0018033938568728137
669.144     0.0031794775227596997
669.4166    0.022147704475168933
669.7265    0.0020496404076104672
670.4168    0.00961810056998834
677.3357    0.0050842670181715476
679.2912    0.08305751305468846
680.2963    0.045961194440621994
681.0297    0.003121537157880252
681.3052    0.7582148573580643
681.7727    0.00421516154497983
681.8692    0.004193433908150037
681.9962    0.0025783462371354285
682.3081    0.36529227292808875
682.586     0.005634700484526301
682.6018    0.0050263266532920995
682.8289    0.005214632839150305
683.0726    0.004874233195483549
683.315     0.11585900212206587
683.6731    0.005576760119646854
683.757     0.005250845567199959
683.8911    0.004077553178391141
684.0834    0.006923873603094015
684.3226    0.030541814837078938
684.6381    0.003193962613979562
684.7644    0.004157221180100382
684.9163    0.0037299109891144543
685.0444    0.00422240409058976
685.1307    0.0034619368015470077
685.3138    0.008531718728498693
685.6284    0.003758881171554178
685.6918    0.0036647280786250755
685.966     0.0018758193129721234
686.2537    0.00340399643666756
686.6992    0.0019482447690714333
686.9475    0.0019482447690714333
697.3048    0.04236164927248629
698.3198    0.046069832624770955
699.3178    0.11214357622417129
700.3224    0.04867714904434611
701.0939    0.002006185133950881
701.3215    0.019859060062430742
702.0355    0.0019627298602912955
702.3306    0.006851448146994706
703.3495    0.0031722349771497686
705.3105    0.013420437015202106
706.3244    0.005214632839150305
708.4882    0.008466535818009316
710.8209    0.0007677098346526838
717.3254    0.018019453477508277


