PRECURSORMZ: 577.2290506559998
COMPOUNDNAME: challenge-073
FORMULA: C29H38O12
SMILES: C(Cc1ccc(cc1)O)C1OC(CC2C(C(OC=C2C(=O)OC)OC2OC(C(O)C(O)C2O)CO)C=C)CC(=O)C1
INCHIKEY: GGNFGJZLCXTJLH-UHFFFAOYSA-N
PRECURSORTYPE: [M-H]-
IONMODE: negative
CHARGE: -1
PARENTMASS: 578.2363266559998
NUM PEAKS: 14
135.0423    0.01019244267664951
149.0597    0.03720168460458587
153.0558    0.016071010762751522
179.0547    0.012590664482919981
197.0812    0.00894946186242396
285.1115    0.022198175011698646
313.1105    0.264316214319139
345.1365    0.6872514038371549
346.1381    0.16571127749181097
397.1631    0.022066565278427704
415.1762    0.20920098268600842
416.1803    0.058537084698175014
417.1777    0.012151965372016845
577.2304    1.0


