PRECURSORMZ: 421.1656625519999
COMPOUNDNAME: challenge-103
FORMULA: C25H26O6
SMILES: c1(cc(c2c(c1CC=C(C)C)oc(c(c2=O)CC=C(C)C)c1ccc(cc1O)O)O)O
INCHIKEY: UWQYBLOHTQWSQD-UHFFFAOYSA-N
PRECURSORTYPE: [M-H]-
IONMODE: negative
CHARGE: -1
PARENTMASS: 422.1729385519999
NUM PEAKS: 75
109.0293    0.0033410347014587297
116.9284    0.005271230536248205
121.0247    0.004457409492745182
123.0474    0.0009319302605521688
125.0963    0.0013849519149872506
149.0909    0.002734309271411745
150.0073    0.0011972715152927167
151.071     0.001810468683260203
155.0805    0.0009303123260720435
162.996     0.0020612485276796234
165.0933    0.0009141329812707905
171.0919    0.0015418915595594041
193.0865    0.025197711593471315
199.0825    0.0022117164343312752
201.1025    0.010917821871885476
202.099     0.0017489871730154416
212.0443    0.0008575052744664053
215.0219    0.0023071745686586674
217.0765    0.0012668426979381042
219.0647    0.011008426202772493
227.0697    0.012249381949028594
230.0571    0.0045544855615527
239.0446    0.0012846399772194826
243.0673    0.007012128036863019
245.0746    0.0024301375891481896
253.0517    0.002386453358184807
255.0715    0.003235868960250586
256.0744    0.00632450588280977
257.0743    0.002048305051838621
265.0573    0.002496472902833327
281.0521    0.0015726323146817848
285.0262    0.001166530760170336
291.0113    0.0009982655742373058
296.1275    0.0012166867290542202
297.041     0.025354651238043462
298.0357    0.004454173623784931
299.1291    0.30844302929108586
299.493     0.002278051748016413
299.7437    0.003150118432803945
300.1244    0.0593814312895585
300.4764    0.00518709794328169
300.7409    0.004823062685253498
300.9537    0.004010859576230601
301.1296    0.009074994499022767
301.315     0.003739046583569552
301.5318    0.0014156926701096313
301.8247    0.0014982073285960212
302.1368    0.0014593769010730142
302.3089    0.0009351661295124193
302.586     0.0007523395332582612
302.854     0.0010370960017603128
303.2373    0.0008607411434266559
309.0399    0.07596040590740237
309.806     0.0009513454743136721
310.0441    0.016201995883974682
310.4647    0.0009707606880751757
310.682     0.0009303123260720435
312.907     0.0009642889501546746
323.0547    0.0037487541904503035
324.086     0.002048305051838621
337.0749    0.005356981063694846
338.0825    0.0012231584669747213
351.0886    0.003739046583569552
352.0942    0.013399733364397677
353.1031    0.004711425206124852
354.0884    0.001160059022249835
366.0758    0.0012231584669747213
395.1133    0.007436026870655847
396.1186    0.0022521647963344078
409.016     0.0007992596331818947
413.1781    0.0010338601328000621
414.1307    0.0006989476954141266
414.6561    0.0004400781785940797
415.699     0.0005274466405208456
421.1646    1.0


