PRECURSORMZ: 619.3851573719999
COMPOUNDNAME: challenge-092
FORMULA: C35H56O9
SMILES: C1C(C(C2CCC3C4(C2(C1)C4)CC(C1(C3(C(CC1C(CC/C=C(/C(=O)O)\C)C)O)C)C)O)(C)C)OC1OCC(O)C(O)C1O
INCHIKEY: LIFSGPPJRHEFEY-DJKKODMXSA-N
PRECURSORTYPE: [M-H]-
IONMODE: negative
CHARGE: -1
PARENTMASS: 620.3924333719999
NUM PEAKS: 18
59.0138     0.0018067539931096671
71.0087     0.0010867191914275857
85.0189     0.0015700758870012051
101.0223    0.003028479709852643
131.0301    0.007753708095891302
443.3432    0.0008867095242936743
487.3421    0.003046813929339918
488.3416    0.0011667230582811502
513.3536    0.0009233779632682246
567.0847    0.001005048577347905
575.3928    0.004148533845802547
576.3951    0.0017884197736223917
585.1022    0.0037051790836557102
586.1002    0.0015867433592623645
607.1409    0.0009900478523128618
607.4423    0.0007817044490483707
609.3524    0.0004666892233124601
619.3835    1.0


