PRECURSORMZ: 571.1598730320001
COMPOUNDNAME: challenge-206
FORMULA: C32H26O10
SMILES: O(c1ccc(cc1)C1Oc2cc(O)cc(c2C(=O)C1C1C(Oc2cc(cc(c2C1=O)O)O)c1ccc(OC)cc1)O)C
INCHIKEY: BTCICADMSGBCKA-UHFFFAOYSA-N
PRECURSORTYPE: [M+H]+
IONMODE: positive
CHARGE: 1
PARENTMASS: 570.152597032
NUM PEAKS: 47
121.0668    0.018547705808924585
153.0192    1.0
153.4758    0.006241410180433495
153.7549    0.010017778562332144
154.0224    0.10861945050372594
154.2531    0.006852942289021423
154.4063    0.006279236908799758
154.7527    0.005831620623132305
155.0245    0.016826589668259593
227.1102    0.12608909455421202
228.1018    0.01965728984100165
245.0814    0.16066272428097694
246.0863    0.027033501872423055
260.0194    0.0035872347400673315
265.1248    0.020829918420355822
285.0903    0.009822340465773117
291.0985    0.008637102976963523
294.1297    0.009891689467777933
311.0924    0.0393145796820033
312.0936    0.008094919870380411
312.5337    0.0007502301125975615
313.0441    0.002635262076183031
313.5444    0.00030891828165781945
314.0258    0.0014941557704674124
314.5454    0.0009708860280674325
315.0453    0.0021056878790553404
319.0929    0.0070672937497635825
334.5544    0.000598923199132507
335.5467    0.0004476162856674526
337.0746    0.04901713550794992
355.0008    0.027449595884451953
355.0469    0.027745905256654355
417.1329    0.05153261294430645
418.1369    0.015187431439054837
419.1478    0.27729513674362305
420.1537    0.08079158733561134
421.1599    0.01848466126164748
422.1481    0.004331160397937183
445.1286    0.1196648551866749
446.1326    0.036786493336191356
447.1366    0.008756887616790025
463.1022    0.03379818179525653
464.1022    0.011404758602428476
473.0658    0.005093999419990165
475.079     0.00566770480021183
505.0241    0.0032909253678649335
571.159     0.7604874604395466


