PRECURSORMZ: 739.2091030600002
COMPOUNDNAME: challenge-091
FORMULA: C33H40O19
SMILES: c1(cc(c2c(c1)occ(c2=O)c1ccc(cc1)O)O)OC1C(C(C(C(O1)COC1C(C(C(C(O1)C)OC1C(C(C(C(O1)CO)O)O)O)O)O)O)O)O
INCHIKEY: VPBGBMLWGOFHSN-UHFFFAOYSA-N
PRECURSORTYPE: [M-H]-
IONMODE: negative
CHARGE: -1
PARENTMASS: 740.2163790600002
NUM PEAKS: 3
284.0327    0.09888734974753118
285.0386    0.07600875821082265
739.208     1.0


