PRECURSORMZ: 495.33162981199985
COMPOUNDNAME: challenge-155
FORMULA: C28H46O7
SMILES: [C@H]1([C@@H](C[C@@H]2[C@](C1)(C1C(=CC2=O)[C@]2([C@](CC1)([C@H](CC2)[C@](O)(C)[C@@H](C[C@H](C(C)(C)O)C)O)C)O)C)O)O
INCHIKEY: IJRBORPEVKCEQD-UHFFFAOYSA-N
PRECURSORTYPE: [M+H]+
IONMODE: positive
CHARGE: 1
PARENTMASS: 494.32435381199986
NUM PEAKS: 155
67.0539     0.005276448851460145
93.0681     0.009747819338098162
95.0492     0.02694985346415374
111.0729    0.020225421942150195
113.0872    0.011977712650734995
121.0976    0.019675188527343703
125.0731    0.01084249423702897
141.1142    0.01303184403489059
147.0759    0.012024048096192383
157.1151    0.025559790100432078
169.0981    0.009180210131245148
171.083     0.01483892640772875
173.1308    0.060572011074171456
191.1044    0.01952459832960719
197.1319    0.024360860449222144
201.1279    0.022872334263903525
203.1219    0.008004448202763907
207.1101    0.009591437209679473
209.1244    0.016066815712349553
215.1449    0.023138763075283512
219.1376    0.05363907004760967
220.1304    0.008624184785756484
221.1422    0.008884821666454296
221.6526    0.0005560253454886652
223.1431    0.011016252157494178
227.1413    0.00915125047783428
239.158     0.007031403848158745
241.1556    0.010257509238129436
247.1369    0.026764511682324185
248.1362    0.005496542217382742
249.1526    0.028739560044945378
251.1638    0.00998528849606728
253.16      0.022333684710461384
254.1728    0.0033766955877072057
255.1751    0.020318092833064974
256.6208    0.0004981060386669291
261.1775    0.008629976716438658
265.1663    0.04352635907653457
266.1734    0.008010240133446082
267.1699    0.014410323537247905
269.1807    0.011311640622285032
271.1692    0.01688347793853603
275.171     0.01317664230194493
277.6192    0.0005560253454886652
278.6416    0.0005560253454886652
279.1578    0.008647352508485178
283.1803    0.06154505542877662
285.1865    0.022351060502507902
293.1855    0.07348801649541857
294.1937    0.015169066456612645
299.1664    0.02986319459728706
300.1611    0.006261077067429656
301.1817    0.19383854414030371
302.1841    0.04294716600831721
303.1959    0.1298087504488746
304.1984    0.022773871442306574
311.2002    0.18410810059425206
312.2014    0.04161502195141728
313.2088    0.02315034693664786
319.1901    0.01796077704542032
329.2115    0.2899440499496102
330.2159    0.06745282472459369
330.5304    0.00302917974677679
331.2229    0.04551299130052011
332.2306    0.00950455824944687
335.2003    0.014508786358844856
339.1965    0.07501708619551241
340.196     0.015730883732783488
341.2084    0.01321139388603797
347.2218    0.16469354894760618
348.2277    0.037578046265942286
348.6066    0.001673867967148169
349.2245    0.006237909344700962
349.4084    0.0010077959386982055
353.213     0.08541939370069618
354.2149    0.022866542333221353
357.2001    0.22532927125928157
358.2106    0.05504650920337785
363.2137    0.0033419440036141644
371.2202    0.6683482572080577
371.9374    0.00404276761615717
372.2265    0.1922631389947525
372.4592    0.0046798799911962645
372.6455    0.003984848309335433
372.7028    0.004008016032064128
372.912     0.004587209100281487
373.011     0.004338156080948024
373.2364    0.06974642927473444
373.4084    0.0028727976183581033
373.4489    0.0028843814797224502
373.6239    0.0047841347434753895
373.7691    0.004228109397986724
373.8147    0.003926929002513698
374.2394    0.013946969082674019
375.2191    0.04229846977191376
376.2208    0.010987292504083309
377.2356    0.021823994810430108
378.2194    0.0056297566230727345
423.2885    0.11018568929767047
424.2919    0.03900286121375699
426.18      0.007083531224298307
441.2991    0.7529857402666604
441.582     0.0019924241546677166
442.0774    0.0036720840524980592
442.3047    0.24853753750275118
442.4831    0.005502334148064916
442.6507    0.004650920337785397
442.7352    0.004928933010529729
443.0622    0.005618172761708388
443.3096    0.053222051038493166
443.5505    0.00455824944687062
443.6249    0.00377054687409501
443.9156    0.005177986029863194
444.1697    0.004031183754792822
444.3047    0.010257509238129436
444.4647    0.0022704368274120497
444.7672    0.0018186662342025088
445.5774    0.002959676578590707
459.0969    0.002461570539923778
459.3112    1.0
459.4773    0.0019402967785281545
459.9021    0.007952320826624348
460.0102    0.007720643599337403
460.3145    0.35927925214591033
460.5362    0.006851853997011363
460.6094    0.006875021719740058
460.806     0.004274444843444113
461.029     0.009655148447183383
461.3152    0.06968271803723051
461.5541    0.004367115734358891
461.709     0.004158606229800642
461.9868    0.004952100733258424
462.2773    0.011844498245045002
462.3134    0.011815538591634134
462.5397    0.00441345117981628
462.6377    0.0050273958321266805
462.7182    0.00434973994231237
462.8993    0.0024268189558307365
463.1605    0.003764754943412837
463.5318    0.002774334796761152
475.293     0.004459786625273668
477.3221    0.8168417760376243
477.4876    0.0033651117263428587
478.0176    0.0036431243990871914
478.3256    0.2922376544997509
478.5642    0.009950536911974237
478.7431    0.00486522177302582
479.0754    0.010292260822222479
479.3344    0.06392553893914997
479.5328    0.009805738644919897
479.7584    0.004969476525304945
480.06      0.004314988358219329
480.3238    0.01259744923372757
485.7784    0.0013205601955355798
495.332     0.13458130133098564


