PRECURSORMZ: 491.11950020799986
COMPOUNDNAME: challenge-105
FORMULA: C23H24O12
SMILES: O([C@@H]1O[C@@H]([C@@H](O)[C@H](O)[C@H]1O)CO)c1c(c(c2c(c1)oc(cc2=O)c1cc(c(cc1)O)OC)O)OC
INCHIKEY: YFZSQPRYLBGYKE-UHFFFAOYSA-N
PRECURSORTYPE: [M-H]-
IONMODE: negative
CHARGE: -1
PARENTMASS: 492.12677620799985
NUM PEAKS: 6
285.0408    0.016510421165230448
299.0297    0.02488854635209387
300.027     0.0064912199108370814
329.066     0.04812272857133365
478.1002    0.007082538817760827
491.1195    1.0


