PRECURSORMZ: 335.22168544
COMPOUNDNAME: challenge-208
FORMULA: C20H30O4
SMILES: C1CC(C2C(C1O)(C1C(CC2)C(C2=CC(=O)OC2(C1)O)C)C)(C)C
INCHIKEY: PUFYSEQCTZERQM-UHFFFAOYSA-N
PRECURSORTYPE: [M+H]+
IONMODE: positive
CHARGE: 1
PARENTMASS: 334.21440944
NUM PEAKS: 146
69.0587     0.001955479030869512
81.0667     0.008992743819948346
93.069      0.008404870249661788
95.0829     0.01517156561308572
105.0689    0.03856598204402903
106.0724    0.003768294182757348
107.0849    0.01147706309187062
109.0978    0.00875661050301316
117.058     0.004437338580740377
121.0998    0.01250768663141065
123.1135    0.020907637436969623
124.1062    0.002762267863731398
125.0683    0.002503997048333538
131.0828    0.02496125937769032
133.0655    0.03831017095068257
134.067     0.004368466363300947
137.1281    0.014544336489976632
138.1321    0.002112901242159636
139.0787    0.0021866929037018816
142.0831    0.0025310539908990288
143.0831    0.008884516049686386
146.0754    0.002149797072930759
148.0944    0.002179313737547657
149.0989    0.012539663018078958
151.1381    0.004791538556143156
155.0787    0.005861517648505719
157.0956    0.012662649120649365
158.0931    0.0031779608904193824
160.0825    0.0027868650842454803
161.0564    0.10050670274259009
162.0695    0.012104292214979709
163.0915    0.01923994588611487
171.1181    0.022845898413479275
173.1329    0.02512606075513467
174.1257    0.004710367728446686
175.0767    0.04601648013774443
176.0764    0.005856598204402902
177.0846    0.06670766203419014
178.1005    0.00939367851432788
179.068     0.008884516049686386
185.5981    0.00044274996925347434
186.1364    0.002304759562169475
187.1146    0.008690198007625138
189.0912    0.09846267371786988
190.0918    0.013668675439675319
191.0989    0.008938629934817366
197.1326    0.0333931865699176
199.1482    0.011331939490837535
201.1006    0.028754150780961753
202.1042    0.0033550608781207727
203.0838    0.024912064936662155
203.1069    0.0248948468823023
204.1048    0.003244373385807404
205.1038    0.009986471528717254
206.5751    0.0003517402533513713
207.1081    0.003094330340671504
207.5774    0.000322223588734473
211.1425    0.010621079817980569
213.1653    0.005113762144877629
215.1347    0.036214487762882795
216.1453    0.007467716148075268
217.1249    0.013302176854015494
225.1406    0.008486041077358258
226.1194    0.002100602631902595
227.1705    0.00607797318902964
228.0863    0.0007969499446562539
228.5908    0.00026564998155208464
229.1254    0.04481859549870865
230.1276    0.007536588365514696
231.137     0.010901488131841101
232.1146    0.0023810109457631286
239.1756    0.014928053129996309
240.1754    0.003296027548886976
243.1401    0.030355429836428482
244.1382    0.005467962120280409
253.1929    0.06145615545443365
254.197     0.013545689337104908
255.2065    0.019527733366129625
256.2068    0.0044004427499692534
257.1573    0.010099618743082033
258.1546    0.002513835936539171
263.1782    0.007197146722420367
271.2067    0.07568564752183003
272.2083    0.01652195301930882
273.1963    0.004434878858688969
281.1854    0.08385438445455663
282.2       0.021802976263682203
283.1033    0.006929037018816873
284.1157    0.0020268109703603493
298.8711    0.0011806665846759317
299.2018    0.9106604353708031
299.3225    0.0028803345221989915
299.5976    0.0029049317427130733
299.6787    0.0029123109088672982
299.8463    0.006646168982904931
300.0014    0.005836920427991638
300.2067    0.21541507809617516
300.4037    0.011607428360595253
300.5427    0.009391218792276473
300.6477    0.006663387037264788
300.8103    0.010803099249784774
300.8547    0.010778502029270692
301.1998    0.03933587504611979
301.398     0.004186446931496741
301.6241    0.0023490345590948224
301.682     0.002353954003197639
301.9273    0.0015816012790554666
302.1996    0.006291969007502152
302.2167    0.0051727954741114255
302.3609    0.001896445701635715
302.4811    0.0015766818349526501
302.7498    0.0017218054359857337
310.1015    0.0016701512729061618
316.6588    0.0010060263190259501
316.7358    0.0016135776657237731
316.9492    0.001416799901611118
317.2119    1.0
317.3711    0.002720452588857459
317.4603    0.0050571885376952406
317.6637    0.004215963596113639
317.8108    0.006801131472143648
317.8468    0.006764235641372525
318.0351    0.00951666461689829
318.2163    0.23146722420366497
318.4233    0.010195547903086952
318.5594    0.011698438076497356
318.836     0.011998524166769156
318.8658    0.01199114500061493
319.0903    0.004562784405362194
319.2219    0.04949698684048703
319.4038    0.0069462550731767304
319.442     0.006956093961382364
319.6047    0.009120649366621571
319.6502    0.009098511868158897
319.8877    0.005999262083384578
319.987     0.006887221743942935
320.2138    0.009071454925593409
320.3761    0.004683310785881196
320.4398    0.004493912187922764
320.6253    0.0017316443241913665
320.7656    0.0015865207231582832
321.0473    0.0015127290616160373
321.4332    0.0009691304882548272
321.7036    0.001097036034928053
326.1365    0.0036526872463411636
335.223     0.5959488377813307


