PRECURSORMZ: 328.119046708
COMPOUNDNAME: challenge-110
FORMULA: C18H19NO5
SMILES: c1cc(ccc1C(CNC(=O)/C=C/c1ccc(c(c1)OC)O)O)O
INCHIKEY: VJSCHQMOTSXAKB-YCRREMRBSA-N
PRECURSORTYPE: [M-H]-
IONMODE: negative
CHARGE: -1
PARENTMASS: 329.126322708
NUM PEAKS: 22
132.0189    0.029174189869808992
134.0363    0.06252969685450917
135.0447    0.043880072222750165
160.9985    0.46847381925306475
161.0245    0.46742848997434194
234.0775    0.011688681934809465
252.0784    0.1061246792739713
295.0851    0.12867053121733346
296.0882    0.03295162976337546
310.1082    1.0
310.7447    0.008742753967499762
311.1123    0.23405872849947737
311.329     0.011712439418416801
311.3797    0.011451107098736103
311.5654    0.009764325762615225
311.753     0.00933669105768317
311.9342    0.009621780860971206
312.1221    0.1707687921695334
312.3517    0.009217903639646488
312.5435    0.008101301910101683
313.1254    0.04000760239475435
328.1191    0.15896132281668726


