PRECURSORMZ: 331.19038531199993
COMPOUNDNAME: challenge-234
FORMULA: C20H26O4
SMILES: C1(C=C2C3(C(C1)C(C(CC3)C)(CCc1cocc1)C)COC2=O)O
INCHIKEY: QXAYVHFIMKYRKA-UHFFFAOYSA-N
PRECURSORTYPE: [M+H]+
IONMODE: positive
CHARGE: 1
PARENTMASS: 330.18310931199994
NUM PEAKS: 40
131.085     0.08583808437856327
143.0793    0.07238312428734321
145.0979    0.07958950969213227
169.0951    0.0846066134549601
171.1118    0.053500570125427596
183.1085    0.08246294184720639
187.1178    0.06741163055872293
197.0985    0.05833523375142532
213.0525    0.0572405929304447
213.5767    0.004287343215507412
214.5797    0.005381984036488027
219.1405    0.047525655644241736
228.0361    0.03215507411630559
237.155     0.08027366020524515
239.1749    0.06732041049030786
255.1662    0.08273660205245154
257.1571    0.0451539338654504
265.1656    0.08492588369441277
267.1724    0.11995438996579247
268.1723    0.030741163055872295
268.2159    0.03771949828962372
269.178     0.05381984036488027
283.17      1.0
284.1753    0.2341619156214367
285.1744    0.09053591790193842
286.1754    0.019794754846066135
295.1687    0.12633979475484608
296.1677    0.03279361459521095
297.1809    0.06093500570125427
299.179     0.08095781071835804
301.1808    0.12013683010262256
302.1889    0.030467502850627135
310.1076    0.0538654503990878
313.1776    0.24629418472063855
314.1787    0.0595667046750285
315.1941    0.06148232611174459
316.206     0.018700114025085517
317.1828    0.03356898517673888
318.2063    0.02120866590649943
331.1902    0.6279589509692132


