PRECURSORMZ: 371.1489144239999
COMPOUNDNAME: challenge-016
FORMULA: C21H22O6
SMILES: CC(=CCc1c(cc(c2C(=O)C(C(c3ccc(cc3)O)Oc12)O)OC)O)C	
INCHIKEY: CTUJEHJOZXGIIE-UHFFFAOYSA-N
PRECURSORTYPE: [M+H]+
IONMODE: positive
CHARGE: 1
PARENTMASS: 370.1416384239999
NUM PEAKS: 25
69.0697     0.011000000000000001
107.0519    0.040999999999999995
153.0553    0.159
163.0386    0.016
179.0337    0.213
181.0461    0.013000000000000001
209.0434    0.18899999999999997
209.1157    0.039
229.0897    0.019
235.094     0.177
241.0861    0.065
254.0537    0.011000000000000001
256.07      0.196
257.0771    0.131
269.0821    0.9159999999999999
271.0988    0.022000000000000002
285.0745    0.297
297.0778    0.10800000000000001
297.1474    0.138
310.119     0.098
315.0922    0.10099999999999999
324.1332    0.091
325.1442    0.899
353.1416    0.551
371.1507    1.0


