PRECURSORMZ: 357.11910628399994
COMPOUNDNAME: challenge-050
FORMULA: C16H22O9
SMILES: O([C@@H]1O[C@@H]([C@@H](O)[C@H](O)[C@H]1O)CO)c1cc(ccc1CCC(=O)O)OC
INCHIKEY: LIVNOUBJFOXZOR-UHFFFAOYSA-N
PRECURSORTYPE: [M-H]-
IONMODE: negative
CHARGE: -1
PARENTMASS: 358.12638228399993
NUM PEAKS: 28
134.037     0.005592887504246451
136.0532    0.15138082178160397
149.0602    0.01082948736007424
151.0767    0.4963501230435251
151.817     0.005087456189047884
152.0804    0.05626030541308653
177.0542    0.12257952257455113
178.059     0.016182087845619735
195.066     1.0
195.3187    0.006148033375038322
195.3426    0.006164604893569423
195.588     0.005170313781703386
195.6735    0.0058000314858852094
195.7353    0.007896328580069435
195.8282    0.007598041246509624
196.0709    0.1276835502821301
196.2615    0.007929471617131636
196.3561    0.008948620006794323
196.537     0.006587178616112487
196.6097    0.007042895375717754
196.7311    0.006628607412440239
197.0739    0.020283538682067132
197.227     0.005385743522607694
197.3607    0.004631739429442617
197.4334    0.004408023929272759
197.6207    0.0038943068548086407
198.0666    0.004872026448143576
357.1186    0.5627853408347074


