PRECURSORMZ: 507.11331676399976
COMPOUNDNAME: challenge-228
FORMULA: C23H22O13
SMILES: c1(cc(c2c(c1)oc(c(c2=O)OC)c1cc(c(cc1)O)OC)O)OC1OC(C(C(C1O)O)O)C(=O)O
INCHIKEY: IHGAMZBDEOTTEW-UHFFFAOYSA-N
PRECURSORTYPE: [M+H]+
IONMODE: positive
CHARGE: 1
PARENTMASS: 506.1060407639998
NUM PEAKS: 4
331.0878    0.9334493333876476
332.0938    0.21613836207147386
425.0163    0.0014082949737835996
507.1122    1.0


