PRECURSORMZ: 471.2752129999999
COMPOUNDNAME: challenge-129
FORMULA: C28H40O6
SMILES: C12C(C3C(CCC1(C)O)C3(C)C)C(CC2)(C)C(CC(C)C)c1c(c(c(c(c1O)C=O)O)C=O)O
INCHIKEY: IBLPTYJTKWQCDX-UHFFFAOYSA-N
PRECURSORTYPE: [M-H]-
IONMODE: negative
CHARGE: -1
PARENTMASS: 472.2824889999999
NUM PEAKS: 36
165.0098    0.000929156380662616
177.0204    0.0004949427779346615
179.0352    0.0009874563888610547
193.0146    0.0015461648007627584
194.0182    0.0010099261836875363
205.0139    0.00820997719619471
206.0178    0.001148388703158828
207.0276    0.04927929651323441
207.2533    0.0005483844521165635
207.7487    0.0008653907466955737
208.0341    0.007261994771218015
208.3081    0.0005647813294223745
208.5461    0.0005465625768603623
209.0311    0.001524302297688344
233.0966    0.00045121777178583247
248.0793    0.0004002052646121987
250.0844    0.004679790241428836
251.0911    0.003234435871509211
252.0848    0.0005611375789099721
427.2164    0.0009431240909601587
429.2477    0.001077335568166981
443.2784    0.005745587266306543
444.2804    0.0020174232003668043
457.262     0.003167026487029766
458.261     0.0013014262246797295
461.3365    0.0004062781821328694
461.3606    0.0004002052646121987
461.6059    0.0004336063109758875
461.6397    0.0006795594705630506
462.4326    0.0005568865366455026
462.7379    0.0006127573778356729
463.1277    0.0005975750840339963
463.453     0.0004500031882816983
463.5409    0.0004925136109263932
463.8571    0.000691705305604392
471.2748    1.0


