PRECURSORMZ: 423.1802145519999
COMPOUNDNAME: challenge-212
FORMULA: C25H26O6
SMILES: c1(cc(c2c(c1CC=C(C)C)oc(c(c2=O)CC=C(C)C)c1ccc(cc1O)O)O)O
INCHIKEY: UWQYBLOHTQWSQD-UHFFFAOYSA-N
PRECURSORTYPE: [M+H]+
IONMODE: positive
CHARGE: 1
PARENTMASS: 422.1729385519999
NUM PEAKS: 41
203.5043    0.00041149251815425806
204.5191    0.0001031730511990268
228.05      0.0007989913034715331
231.5311    0.0001031730511990268
241.0483    0.033328494597211204
242.0539    0.007820757218214602
243.0894    0.004209700426248663
244.1028    0.0009681471199722632
259.5661    7.318088515279808e-05
270.0511    0.0023129958454851593
280.2381    0.0013232543659596112
284.0637    0.0035654686995756704
297.0874    0.0010893154707990271
297.2441    0.0008265840962340637
298.2465    0.00025673294135571784
310.7032    0.0011588972960262778
310.8932    0.0014540202099211684
311.0595    1.0
312.0601    0.19631192332562733
312.076     0.1917783075060794
312.6069    0.011182279188675917
313.4054    0.005451376100562532
313.5848    0.0029368328992467165
314.275     0.0028252620415547456
315.2454    0.0011828910288632607
325.0857    0.004087332388780051
326.0755    0.0009465527604189786
338.242     0.0028408579678987846
350.1056    0.0008433797092199517
367.1129    0.0661687167311898
368.1241    0.017883728770045265
368.1444    0.017387058500319713
369.1457    0.004779551581127009
369.168     0.004779551581127009
370.1539    0.0012260797479698303
371.2028    0.001925497060167884
373.2443    0.0011732935357284676
379.1221    0.003159974614630658
397.1568    0.0037838116683922155
398.1614    0.0010725198578131392
423.1795    0.8445721977419497


