PRECURSORMZ: 511.14571495599984
COMPOUNDNAME: challenge-106
FORMULA: C23H28O13
SMILES: O([C@@H]1O[C@@H]([C@@H](O)[C@H](O)[C@H]1O)CO)[C@@H]1OC=C[C@@H]2[C@H]1[C@@]1([C@H]([C@H]2OC(=O)c2cc(c(cc2)O)OC)O1)CO
INCHIKEY: AKNILCMFRRDTEY-UHFFFAOYSA-N
PRECURSORTYPE: [M-H]-
IONMODE: negative
CHARGE: -1
PARENTMASS: 512.1529909559998
NUM PEAKS: 24
83.0127     0.007302411461731754
85.027      0.02081048437478308
107.0164    0.007010870319723452
108.0208    0.04453638016964918
111.0079    0.06275076008940594
123.045     0.12565423220557814
145.0277    0.013161000124946204
151.0322    0.021518512862517526
164.0389    0.006288958920464799
166.0264    0.0391636934097819
167.034     0.2364537490802571
168.0343    0.024780997070705666
181.0508    0.022545848315308686
192.039     0.05324096569532562
207.0627    0.10506587441518234
235.061     0.5726423345504019
236.064     0.09080812427982396
236.3539    0.005983534866932293
285.0561    0.014535408365842484
319.0914    0.011772708972525718
331.0832    0.022115478058058337
349.093     0.16169427052241395
350.098     0.03188904777109855
511.1456    1.0


