PRECURSORMZ: 275.091399548
COMPOUNDNAME: challenge-161
FORMULA: C15H14O5
SMILES: [C@@H]1([C@@H](O1)/C(=C\1/C(=CC(=O)O1)OC)/OC)c1ccccc1
INCHIKEY: RTNGMIUMJUOABT-BUHFOSPRSA-N
PRECURSORTYPE: [M+H]+
IONMODE: positive
CHARGE: 1
PARENTMASS: 274.08412354800004
NUM PEAKS: 72
77.0349     0.07328059645190996
92.0592     0.02485216291480368
121.0643    0.7092075044656231
121.4621    0.005713778527287453
121.7364    0.006512598049549001
122.0697    0.06764448093373128
122.2516    0.004626496399764792
122.5439    0.004593212253003894
126.0448    0.07496699322112879
127.0519    0.18611385397135347
141.0721    0.34821874341251263
153.0389    0.05910154993176751
154.0082    0.08141302297715598
154.0443    0.09034426902466355
155.0527    0.32186879389346856
168.0567    0.03368355652202856
169.0661    0.20311095825058526
169.5093    0.0028957207681981076
177.5309    0.002363174420023743
183.0395    0.24804455637779727
185.0658    0.09995229272297605
185.5206    0.002773678896741482
186.0682    0.05890184505120211
186.5187    0.002496311007067334
187.0756    0.17365448836719072
188.0768    0.052544573019870644
197.0651    0.11393163436255313
198.0668    0.07299213384664885
201.0742    0.10617642816726394
202.0628    0.028391377187045812
203.0746    0.05353200270711061
210.0246    0.08118003394982971
211.0404    0.45612594721134325
212.0461    0.08189009574739553
213.0601    0.2593722609920895
214.0627    0.1255034227197586
215.0727    0.5639000144231303
215.6472    0.00531436876615668
216.078     0.09552550120377665
216.1021    0.10400186391221862
225.0551    0.7957130018971964
225.7669    0.006745587076875285
226.0615    0.14631710916090668
226.313     0.006246324875461818
226.4428    0.004071760620416497
227.0652    0.07369110092862771
228.0738    0.05083598681947789
229.0924    0.14328825180566498
230.0902    0.030721267460308656
231.0764    0.042781223303340624
231.1039    0.03272941098154949
240.9263    0.0069009130950928085
242.0661    0.0586466665927019
242.0982    0.0575704791807662
243.065     0.862292390134579
243.7536    0.005758157389635317
244.0717    0.1647454317508571
244.3223    0.00711171269124516
244.5259    0.0058912939766789085
244.7337    0.008398699699333208
244.9544    0.009818823294464847
245.0822    0.2454040140680994
245.4256    0.004215991923047053
245.7456    0.004837295995917145
246.0903    0.07077319072925566
247.099     0.13548866674802792
248.099     0.02580630845528275
248.1429    0.02333218687938935
249.977     0.0028180577590893457
257.95      0.010462316798508871
270.0025    0.029034870691089835
275.0924    1.0


