PRECURSORMZ: 337.10814767599993
COMPOUNDNAME: challenge-009
FORMULA: C20H18O5
SMILES: CC(=CCc1c(cc(c2c(=O)cc(c3ccc(cc3)O)oc12)O)O)C	
INCHIKEY: MEHHCBRCXIDGKZ-UHFFFAOYSA-N
PRECURSORTYPE: [M-H]-
IONMODE: negative
CHARGE: -1
PARENTMASS: 338.1154236759999
NUM PEAKS: 9
117.0347    0.023
133.0631    0.017
161.0242    0.025
217.0846    0.059000000000000004
219.0634    0.073
268.0379    0.061
281.0457    0.203
293.0475    0.201
337.1079    1.0


