PRECURSORMZ: 569.145321032
COMPOUNDNAME: challenge-098
FORMULA: C32H26O10
SMILES: O(c1ccc(cc1)C1Oc2cc(O)cc(c2C(=O)C1C1C(Oc2cc(cc(c2C1=O)O)O)c1ccc(OC)cc1)O)C
INCHIKEY: BTCICADMSGBCKA-UHFFFAOYSA-N
PRECURSORTYPE: [M-H]-
IONMODE: negative
CHARGE: -1
PARENTMASS: 570.152597032
NUM PEAKS: 53
107.0208    0.004520451926389698
125.0205    0.12146412745179572
151.0003    0.020754873890677535
285.0891    0.007294500611835149
296.0365    0.004508571632233615
307.0258    0.017446211968208333
322.0478    0.07473893053592008
323.053     0.01595523505161988
325.0815    0.0719470614092405
326.0732    0.013953405486319842
327.0205    0.004918441780618488
332.1338    0.003385883834483742
333.1163    0.004787758544901572
357.1034    0.00362942986468345
358.1162    0.013644517838261675
359.1121    0.0030948166276597014
360.0978    0.005405533841017904
361.0779    0.004187803690019365
362.0726    0.00826868473263398
373.1431    0.03704869732574579
375.1249    0.014886008577572381
376.1085    0.005096646192959738
384.0909    0.004484811043921448
386.0654    0.0029344326565525765
387.1129    0.006320316491036319
399.1224    0.01509985387238188
404.0914    0.030859064070426385
415.1243    0.020249961389043992
417.1305    0.016988820643199128
418.1274    0.005262970311144904
428.0911    0.013187126513252469
429.0908    0.004324427072814323
439.1574    0.005756002518622362
442.1406    0.0038254547182588246
443.1177    0.3228529338386419
443.8951    0.0033561830990935337
444.1164    0.09879058605491073
444.6404    0.0032908414812350757
445.1212    0.02105782139165766
445.3335    0.0034452853052641588
445.7466    0.003409644422795909
459.1455    0.04129590248654557
460.1455    0.012266403716156013
465.1276    0.007953856937497774
466.123     0.0037660532474784077
482.1669    0.0034631057464982835
483.1454    0.05795801504045241
484.1501    0.018248131823743956
507.1439    0.016406686229551045
508.1519    0.0049006213393843635
525.1544    0.057773870481033114
551.1369    0.008749836645955356
569.1451    1.0


