PRECURSORMZ: 541.1140209039999
COMPOUNDNAME: challenge-117
FORMULA: C30H22O10
SMILES: c1(cc(c2c(c1)occ(c2=O)C(C(c1ccc(cc1)O)c1ccc(cc1)O)C(=O)c1c(cc(cc1O)O)O)O)O
INCHIKEY: KLKLIUIRQAMTAJ-UHFFFAOYSA-N
PRECURSORTYPE: [M-H]-
IONMODE: negative
CHARGE: -1
PARENTMASS: 542.1212969039999
NUM PEAKS: 49
125.0242    0.3193404779206852
125.4731    0.00335123007781909
125.7851    0.0037251568022915356
126.0191    0.02521536062763248
151.0033    0.031148801670676386
189.0162    0.011175470406874609
197.0599    0.1234169847395565
198.0638    0.017934372332244475
217.0137    0.3493816098603772
231.0608    0.004522396799751656
233.0495    0.011817495537572581
255.0652    0.01102025554011246
275.0462    0.004063807420681675
295.056     0.00465644600286442
297.0393    0.005481906885190385
299.0549    0.10469242763106838
341.0207    0.004240187951093207
342.0358    0.06967736473377123
343.0448    0.7574979363477943
343.3424    0.004473010251236428
343.5326    0.003555831493096466
343.8587    0.006709515376854641
343.8933    0.0066883497132052576
344.0496    0.1760489350143574
344.3421    0.006843564579967405
344.3609    0.006709515376854641
344.5787    0.008035896965549355
344.6364    0.008360437141506572
344.8367    0.009242339793564227
345.0521    0.040546356331002766
345.3254    0.005996938033992056
345.5454    0.0048469369757088735
345.7181    0.00517147715166609
346.039     0.008035896965549355
346.0687    0.007993565638250587
346.3285    0.0033935614051178575
346.7201    0.003280677865654478
347.0695    0.006363809537248041
365.0272    0.03048561087632903
366.0374    0.006081600688589591
398.9674    0.007083442101327088
404.0812    0.008755529529628402
415.0846    0.08013320257656678
416.0837    0.02362088063271224
417.0891    0.004966875736388715
431.1033    0.005347857682077621
442.9683    0.005418409894242234
497.1235    0.0235009418720324
541.1136    1.0


