PRECURSORMZ: 445.2068232239999
COMPOUNDNAME: challenge-189
FORMULA: C21H32O10
SMILES: C1CC(C2C(C1O)(CC(C(C2O)C(=C)C(=O)OC)OC(=O)C(=C)C(CO)O)C)(CO)O
INCHIKEY: RRUQYJBEEQBWGK-UHFFFAOYSA-N
PRECURSORTYPE: [M+H]+
IONMODE: positive
CHARGE: 1
PARENTMASS: 444.1995472239999
NUM PEAKS: 54
105.0684    0.06333830104321907
113.0653    0.012492329271499956
115.0576    0.050845971771719116
117.0686    0.2712369597615499
119.0815    0.10305075830630314
143.086     0.3850267379679144
145.0695    0.11615674585780661
147.078     0.08240554045761374
157.0953    0.1324625230121855
169.1008    0.10392741299202243
171.1181    0.5694310511089681
172.1103    0.08486017357762776
177.0782    0.0956430262119751
179.1048    0.036644165863066534
181.0987    0.32953449636188303
182.105     0.06162882440606644
183.1086    0.07118436048040677
189.1249    0.08521083545191549
199.1124    1.0
200.0963    0.1677917068466731
200.1145    0.1684053651266766
201.0904    0.07298150258613131
201.1144    0.07214868063469798
203.1008    0.09020776716051547
209.0974    0.08266853686332953
215.1078    0.06759007626895765
217.1236    0.4926799333742439
218.1239    0.07745244148329972
227.1081    0.7331901464013325
228.1061    0.11151047602349434
231.1325    0.09261856754624354
241.118     0.06439028666608224
242.0692    0.017752257385815727
245.1187    0.37639168931357936
246.12      0.06535460682037345
247.1316    0.03603050758306303
259.1342    0.4298676251424564
260.136     0.07508547383185764
263.1262    0.05856053300604891
265.1446    0.03182256509161041
277.1448    0.4242132024195669
278.1489    0.06798457087753133
295.1545    0.7063206802840362
296.1591    0.131848864732182
296.34      0.009380205137196458
296.5398    0.00727623389147015
296.764     0.009336372402910494
297.1574    0.026387306040150785
313.1634    0.22836854562987638
314.1698    0.04120277022880687
409.186     0.01981239589725607
410.1894    0.008372052248619269
427.1912    0.012492329271499956
445.207     0.2885947225387919


