PRECURSORMZ: 355.11871236
COMPOUNDNAME: challenge-070
FORMULA: C20H20O6
SMILES: C1(C(C(C1C(=O)OC)c1ccc(cc1)O)C(=O)OC)c1ccc(cc1)O
INCHIKEY: OEWCQSJKSNWJTH-UHFFFAOYSA-N
PRECURSORTYPE: [M-H]-
IONMODE: negative
CHARGE: -1
PARENTMASS: 356.12598836
NUM PEAKS: 22
117.0346    0.007538260226432269
177.0559    0.04778972520908004
209.0602    0.014237355635205097
210.066     0.1586448199351425
211.0761    1.0
211.6788    0.010141093474426807
211.7538    0.011307390339648404
211.8452    0.011065597087102462
212.0806    0.16399271775615862
212.3587    0.00920236672924845
212.4501    0.009714399499345735
212.6265    0.006471525288729589
213.0817    0.02531717585481026
213.2177    0.006101723843659327
213.2506    0.006115946976162029
213.4775    0.006243955168686351
235.0024    0.01982704670876714
268.1001    0.016413494908118564
269.0975    0.00521988962849178
278.9949    0.02049553393639415
322.9817    0.013497752745064574
355.1189    0.0033566592706377654


