PRECURSORMZ: 311.05611210399996
COMPOUNDNAME: challenge-084
FORMULA: C17H12O6
SMILES: c1(c(cc2c(c1)cc(cc2c1ccc(c(c1)O)O)C(=O)O)O)O
INCHIKEY: ZSKDVJYWOHBGNI-UHFFFAOYSA-N
PRECURSORTYPE: [M-H]-
IONMODE: negative
CHARGE: -1
PARENTMASS: 312.06338810399996
NUM PEAKS: 13
197.0586    0.01718377088305489
237.056     0.11189645676519185
247.0362    0.011070313934275747
253.0527    0.01261244721865247
265.0507    0.09049017807967688
267.0656    0.7962548191665136
268.0728    0.17736368643289885
268.4506    0.010060583807600514
281.0451    0.22430695795850927
282.0517    0.05028456030842665
283.0537    0.0148522122269139
307.0225    0.01968055810537911
311.0555    1.0


