PRECURSORMZ: 787.2655198720001
COMPOUNDNAME: challenge-243
FORMULA: C35H46O20
SMILES: O[C@H]1[C@@H](O[C@@H]([C@@H](O)[C@@H]1O)CO)O[C@H]1[C@H](O[C@@H]2[C@@H](O)[C@H](OCCc3ccc(c(c3)O)O)O[C@@H]([C@H]2OC(=O)/C=C/c2ccc(c(c2)O)O)CO)O[C@H]([C@H](O)[C@H]1O)C
INCHIKEY: SDRRSTAVRUERNC-QPJJXVBHSA-N
PRECURSORTYPE: [M+H]+
IONMODE: positive
CHARGE: 1
PARENTMASS: 786.2582438720001
NUM PEAKS: 37
89.0352     0.021401764884876762
117.0276    0.04334449065151976
129.0542    0.016769787334753358
135.0382    0.06564222199682186
145.0306    0.11378774047401698
146.0342    0.017074077830746864
147.0639    0.01127565337931501
163.0396    1.0
164.0378    0.10552118199952668
165.0537    0.02510396591946445
181.0485    0.024613720120363797
247.0947    0.05227034520066268
273.0797    0.011360178517090985
309.1012    0.03998039016803598
310.1075    0.005460323900327958
315.0895    0.0076917875376136865
317.1006    0.007066301518071474
325.0935    0.4578557663048991
326.0982    0.08356155120532847
421.0832    0.0026371842986104067
435.1219    0.019102681137370254
461.1461    0.010903742773100722
463.1558    0.005663184230990297
471.1509    0.06665652365013355
472.1501    0.013980457788146196
477.129     0.02238225648307807
479.156     0.049193630185617204
480.1585    0.011613753930418908
530.0611    0.009297765155357204
532.0684    0.035686513169016464
533.0725    0.01736146329918518
623.1952    0.006677485884301992
625.2153    0.019406971633363763
626.2175    0.010903742773100722
633.2034    0.011664469013084492
641.2022    0.0036683909794772967
787.2631    0.011715184095750076


