PRECURSORMZ: 461.21809204799996
COMPOUNDNAME: challenge-080
FORMULA: C25H34O8
SMILES: C1CC(C2C(C1OC(=O)C)(c1c(C(C2OC(=O)C)O)cc(cc1O)C(C)C)C)(C(=O)OC)C
INCHIKEY: FEMTVABTBAWCEK-UHFFFAOYSA-N
PRECURSORTYPE: [M-H]-
IONMODE: negative
CHARGE: -1
PARENTMASS: 462.22536804799995
NUM PEAKS: 74
59.0071     0.0026257639450898216
172.0871    0.00197629962630432
187.1111    0.012174919007232901
200.0816    0.0046705617612660495
215.1073    0.03943719857625244
216.1092    0.007326769346298942
239.1428    0.0033564113037235113
243.1473    0.006481958337878738
244.147     0.0011822280177892336
255.128     0.004810095111005122
265.1568    0.0052109363702555495
269.1193    0.0067026747274659985
270.1207    0.0063297401381633865
271.1343    0.05026498651600447
272.1386    0.010995227959438924
273.1388    0.0015221819971535197
281.1465    0.002275662085744512
284.1631    0.002559802725213169
285.1498    0.07530488036917989
286.3379    0.0012228195377133276
287.154     0.0035390731433819333
289.1463    0.006073506168642544
303.1609    0.02745762625865424
304.1631    0.005495077009724206
309.1489    0.005350469719994622
310.1557    0.001740361416745524
327.1609    0.016946959568309185
328.165     0.004269720502015623
341.1759    0.012492040256639884
342.1765    0.0034299834335859308
343.1652    0.001872283856498829
359.1815    0.4270735290013725
359.9332    0.003150916734107786
360.1915    0.11396830309687928
360.4435    0.003998264712523245
360.8229    0.0037876962029170084
361.1922    0.022655142057634886
361.3447    0.0036532367931684474
361.8366    0.002932737314515781
362.6416    0.00224014450581093
363.1841    0.008564810703983804
363.472     0.001192375897770257
364.1938    0.0023974366455167934
377.1894    0.0038435095428126374
415.1511    0.0019103384064276673
415.1811    0.0019052644664371554
418.7564    0.0015475516971060785
419.2069    0.8574045274766536
419.5234    0.001159395287831931
419.8464    0.003495944653462584
420.2115    0.23045328042905236
420.4424    0.012859900905951986
420.4947    0.012862437875947241
420.733     0.018603600975211267
421.2108    0.046378348483272484
421.3818    0.007752980305501928
421.7833    0.006119171628557149
421.9523    0.003995727742527989
422.2229    0.010056549061194252
422.5448    0.0034096876736238843
422.8763    0.0024760827153697254
423.204     0.003237173713946485
423.517     0.002270588145754
423.8276    0.0014815904772294258
424.1218    0.0023543081555974436
424.7416    0.0014739795672436583
424.9638    0.001499349267196217
426.0286    0.0013344462175045857
434.1824    0.0017961747566411532
452.3447    0.0003450279193547978
452.7795    0.0007484061486004805
453.1432    0.0005150049090369409
454.4451    0.0004211370192124738
461.2177    1.0


