PRECURSORMZ: 661.3429823439999
COMPOUNDNAME: challenge-238
FORMULA: C32H52O14
SMILES: OC(=O)/C(=C/C(C/C(=C/CC/C(=C/CCC(C=C)(C)O[C@@H]1O[C@@H]([C@H]([C@@H]([C@H]1O[C@@H]1O[C@@H]([C@H]([C@@H]([C@H]1O)O)O)CO)O)O)CO)/C)/C)O)/C
INCHIKEY: ISQUNAAALVXWGI-DFTZOVBQSA-N
PRECURSORTYPE: [M+H]+
IONMODE: positive
CHARGE: 1
PARENTMASS: 660.3357063439998
NUM PEAKS: 95
69.0312     0.04315752274935948
81.0692     0.06542097358423889
85.0231     0.21406484671790793
93.0679     0.09037900874635567
95.0526     0.07783373089495538
95.0809     0.07756868981358776
105.0677    0.10535382984362575
107.0816    0.0813234384662956
109.0822    0.0752716671084018
119.0822    0.17108401802279352
121.0993    0.1865005742556763
127.0355    0.14069264069264067
133.0935    0.10279176605707217
135.1116    0.07628765792031098
145.0525    0.30046823924374944
146.0611    0.02204258326707306
147.1112    0.10517713578938068
149.1305    0.08808198604116971
159.1168    0.13861648555526107
161.1244    0.17369025532290835
162.1176    0.03714992490502694
163.0607    0.26892835056100356
165.0833    0.04262744058662426
171.1102    0.06462585034013606
173.1225    0.1085343228200371
189.1642    0.2480784521600848
190.164     0.03728244544571075
191.1776    0.11357010336602173
192.1731    0.022528491916247017
199.1443    0.0826044703595724
201.1596    0.1203728244544571
202.1695    0.07028006007597844
203.1819    0.03856347733898754
205.1925    0.11803162823570985
206.1842    0.02407456489089142
206.2005    0.022395971375563213
213.1645    0.05420090113967665
225.1726    0.028315222192773208
227.1739    0.12319992932237828
231.1374    0.07739199575934269
245.1499    0.0667903525046382
249.1417    0.032865094089583886
255.2113    0.29618340842830637
256.2123    0.07354890007951231
265.1857    0.05592366816856612
271.0822    0.03202579733191978
275.9876    0.5027829313543599
276.9969    0.2510380775686898
278.0104    0.04496863680537149
278.1015    0.04408516653414612
279.0053    0.08962805901581411
280.9944    0.036001413552433956
283.2045    0.1838059899284389
284.2014    0.038695997879671346
289.0977    0.04965102924286598
301.2162    1.0
302.2195    0.20978001590246487
303.2133    0.04443855464263627
306.008     0.046072974644403214
319.2275    0.3164148776393674
320.2279    0.08962805901581411
325.1139    0.453485290219984
326.1154    0.07151691845569397
337.0107    0.029817121653856346
337.0342    0.032467532467532464
339.0097    0.023544482728156194
343.141     0.019966428129693434
363.0914    0.039358600583090375
365.1066    0.06193126601289865
367.2414    0.03741496598639456
396.0337    0.047619047619047616
397.0269    0.032467532467532464
399.0453    0.041876490856082686
401.0335    0.011529287039491121
409.2347    0.056807138439791495
410.2371    0.011529287039491121
427.241     0.0652442795299938
445.2586    0.12297906175457193
446.2613    0.03957946815089672
463.2698    0.056674617899107695
464.2776    0.016741761639720822
481.2742    0.03710575139146567
482.28      0.014533085961657389
487.1675    0.10835762876579202
488.1748    0.020496510292428657
505.1854    0.02707836381305769
607.3054    0.041346408693347464
608.317     0.015284035692198958
625.3202    0.04262744058662426
626.3255    0.013163707041258061
643.3277    0.052301440056542095
644.3389    0.01877374326353918
649.2151    0.04633801572577083
650.2253    0.018376181641487764
661.3425    0.056144535736372465


