PRECURSORMZ: 463.23264404799994
COMPOUNDNAME: challenge-185
FORMULA: C25H34O8
SMILES: C1CC(C2C(C1OC(=O)C)(c1c(C(C2OC(=O)C)O)cc(cc1O)C(C)C)C)(C(=O)OC)C
INCHIKEY: FEMTVABTBAWCEK-UHFFFAOYSA-N
PRECURSORTYPE: [M+H]+
IONMODE: positive
CHARGE: 1
PARENTMASS: 462.22536804799995
NUM PEAKS: 145
155.9792    0.0010416860202267927
157.9807    0.0007394608252977352
173.9703    0.0003678724708767627
197.0909    0.003793917098638129
199.0761    0.023512872439911067
208.089     0.014255367903436574
212.0872    0.012977103964228428
213.1251    0.012537391078163611
214.1136    0.0021552124556416404
219.0893    0.00044219014176095727
219.5721    0.0001659761316413677
220.5758    0.0001771237822739969
222.1052    0.021766407174132495
223.1129    0.07137964562857267
224.1181    0.016683078485653594
225.0943    0.02157194260198552
240.1143    0.050560788758213654
240.5725    0.00046324681517814564
241.1255    0.14476834562671473
242.3439    0.0008311192860549083
242.5187    0.0008484600759278871
243.1275    0.003182034941691594
250.1261    0.02253683369563198
251.1136    0.013176523047767683
252.115     0.0027596628454997557
254.1305    0.03073159553846249
255.1436    0.014297481250270949
256.1256    0.003303420470802445
265.1587    0.15074100911010782
265.8031    0.0008323579139029783
266.1655    0.03923105983191821
266.4507    0.0008447441923836774
266.8359    0.0008806643999777047
267.1503    0.011809077903498505
267.1665    0.009756671559246668
267.5601    0.000634177458211793
268.1491    0.018449361797001282
269.1318    0.00916832333141346
270.1405    0.0017501811493227804
282.7027    0.0011432535037685253
283.0032    0.0019446457214697557
283.17      1.0
283.375     0.003544952901176077
283.7637    0.004233629984702946
283.9684    0.007267029584626152
284.1753    0.21746093677424147
284.3372    0.01037350822758548
284.5214    0.008243068328905239
284.6352    0.007103530708680923
284.8762    0.006294706723891273
285.1751    0.029213037796728784
285.3254    0.0034099424657364572
285.6375    0.0034607262075073233
286.1554    0.0040825173872384175
286.6658    0.001091231134149589
286.9643    0.0010342542531383734
287.4616    0.0007072565012479176
287.7402    0.0007518471037784342
293.1546    0.03573689067251299
294.1577    0.008278988536499266
296.1437    0.009419764784571651
297.1691    0.006642761149198917
298.1858    0.0013253317974348017
307.1662    0.004893818627724207
311.1648    0.07061912812985774
312.169     0.01617152518440072
324.1727    0.004817023701143872
324.4747    0.0006676204101096804
324.5807    0.0007468925923861545
324.6963    0.0012373892202218384
324.7461    0.0013129455189541026
324.9618    0.0015681028556565036
325.0477    0.0016919656404634944
325.1809    0.9843747096965981
325.3613    0.0021923712910837372
325.4079    0.002126724015136032
325.5516    0.003896723210027931
325.652     0.00351150994927819
325.9282    0.006953656739064464
326.1857    0.23293635310802693
326.4785    0.007663390496008522
326.6459    0.007098576197288644
326.9108    0.007371074323864023
326.9352    0.007352494906142975
327.1862    0.03862289355851587
327.3273    0.005618415918845104
327.4183    0.0062736500504740845
327.5808    0.0058227895137766385
327.606     0.0032204324049817613
327.8445    0.005857471093522595
327.9662    0.006859521022611151
328.1789    0.006489171296038249
328.3048    0.001929782187292917
328.3443    0.001953316116406245
328.611     0.001118480946807127
328.6756    0.0011296285974397562
328.84      0.0011172423189590571
328.8779    0.0011246740860474766
329.3157    0.0006700976658058203
329.5373    0.000702301989855638
329.7183    0.0007332676860573856
330.4386    0.00037282698226904235
330.771     0.000701063362007568
336.0829    0.0025961639695545272
337.0831    0.0017551356607150598
343.1919    0.0478420006317002
344.1981    0.011622045098439948
344.4146    0.00040626993416692986
344.8264    0.0004843034885953341
345.1982    0.00162012522527544
353.1765    0.015829663898333426
354.1865    0.0038248827948398766
355.1835    0.0012150939189565799
357.1788    0.002711356359425029
365.1748    0.008404089949154326
366.1782    0.0025020282531012144
367.1826    0.002842650911320439
385.201     0.02592200360440704
386.2076    0.007055224222606197
386.4863    0.0001498739696164589
386.7573    0.00034805442530764423
387.2064    0.0015012169518607288
388.2164    0.00032823637973852565
396.1023    0.010828084647827137
396.1198    0.010813221113650299
397.1092    0.0059293115087106505
398.112     0.0019483616050139656
399.1191    0.0019285435594448468
414.1187    0.001267116288575516
417.1957    0.0006676204101096804
426.196     0.00633558144287758
427.1904    0.0016820566176789355
438.1142    0.000849698703775957
439.1198    0.0013055137518656833
445.2216    0.03884336931547232
446.2265    0.01104856040478358
446.5619    0.00031832735695396636
446.9305    0.00036167933163641316
447.2277    0.0022976546581696795
448.2326    0.0005140305569490119
456.126     0.01187472517944621
457.13      0.01346512333636797
458.1354    0.0035511460404164265
459.1364    0.0046584793365909245
463.2414    0.0009401185366850603


