PRECURSORMZ: 523.2173879079999
COMPOUNDNAME: challenge-210
FORMULA: C26H34O11
SMILES: C1(C(C(OC1)c1ccc(c(c1)OC)OC1OC(C(C(C1O)O)O)CO)CO)Cc1ccc(c(c1)OC)O
INCHIKEY: KNFOHFRALRKTOJ-UHFFFAOYSA-N
PRECURSORTYPE: [M+H]+
IONMODE: positive
CHARGE: 1
PARENTMASS: 522.2101119079998
NUM PEAKS: 40
130.0777    0.012482156491717291
131.0792    0.061564253228430094
141.0692    0.07173920260266241
145.065     0.03029246754971284
146.0671    0.01804269163097965
157.0682    0.05907446137502904
158.0704    0.061049696245393886
159.0799    0.06551472296915978
169.0659    0.03874116123892043
174.0656    0.20222089433323373
175.0755    0.08125020748265445
186.0709    0.04785379942236829
189.0915    0.3244862729475816
190.0907    0.049995020416293195
191.0973    0.03522225541944693
201.0894    0.13330345583109252
202.0922    0.022242140557049428
203.0914    0.02071506822029678
219.1017    1.0
219.7533    0.005477542077482322
220.1074    0.1636955150549414
220.2639    0.0063738671447067016
220.5167    0.005610330976330378
221.0995    0.0313713773528533
237.1097    0.06292533944162268
238.1004    0.010722703581980545
258.011     0.004498223948477907
325.1433    0.01563589283935863
341.1406    0.043538160209806456
342.1456    0.016167048434750853
345.1223    0.004564618397901935
353.0233    0.06041894897586561
354.0402    0.015818477575274707
359.1377    0.014308003850878066
378.0322    0.012814128738837433
381.1547    0.010722703581980545
409.0597    0.030109882813796767
423.08      0.009212229857583906
434.0658    0.02212595027055738
523.2163    0.018922418085848023


