PRECURSORMZ: 383.2216854399999
COMPOUNDNAME: challenge-018
FORMULA: C24H30O4
SMILES: CC(=CCC/C(=C/CC[C@]1(C)[C@@H](C)c2c(c3ccc(cc3oc2=O)O)O1)/C)C	
INCHIKEY: OLRXRLGFFNYRIM-QOAKVELXSA-N
PRECURSORTYPE: [M+H]+
IONMODE: positive
CHARGE: 1
PARENTMASS: 382.2144094399999
NUM PEAKS: 19
123.1168    0.013000000000000001
137.0237    0.01
179.0331    0.055999999999999994
191.0338    0.061
205.0499    0.541
217.0512    0.018000000000000002
219.0659    0.013000000000000001
231.0644    0.11599999999999999
233.0816    0.048
245.0816    0.038
247.0965    0.11599999999999999
257.0812    0.026000000000000002
259.0955    0.17800000000000002
271.0972    0.016
273.1121    0.026000000000000002
301.1443    0.033
315.1578    0.095
327.1592    0.043
383.2226    1.0


