PRECURSORMZ: 359.1336582839999
COMPOUNDNAME: challenge-146
FORMULA: C16H22O9
SMILES: O([C@@H]1O[C@@H]([C@@H](O)[C@H](O)[C@H]1O)CO)c1cc(ccc1CCC(=O)O)OC
INCHIKEY: LIVNOUBJFOXZOR-UHFFFAOYSA-N
PRECURSORTYPE: [M+H]+
IONMODE: positive
CHARGE: 1
PARENTMASS: 358.12638228399993
NUM PEAKS: 38
55.0148     0.058552359983487
109.0605    0.08089078482638411
137.059     1.0
138.0612    0.1006605201596257
151.0711    0.07141874225952938
161.0504    0.06444658501903583
179.0697    0.7547130865556626
179.665     0.005802486124489702
179.8556    0.005802486124489702
180.0741    0.10219714691986607
180.3317    0.005252052658134948
180.6595    0.004701619191780194
181.0776    0.014265400669694051
191.0623    0.043507178569790375
197.0808    0.609238108343654
197.7647    0.004426402458602817
198.0838    0.08685381404522728
198.337     0.004564010825191505
199.0723    0.022177881748543647
203.0678    0.1746479519288106
204.0664    0.02403559469749094
216.9809    0.021031145360304575
221.0739    0.015756157974404845
245.082     0.12015503875968993
246.0797    0.018508325306178616
252.9935    0.011444429154625934
257.996     0.008118893628732627
263.0898    0.059125728177606536
264.102     0.011146277693683777
275.0912    0.014678225769460117
292.0043    0.11047658364295217
294.033     0.008462914545204349
305.1004    0.034654373652584745
306.1093    0.0066510710517866155
310.0132    0.017201045823586076
323.1101    0.026833631484794278
341.1272    0.016857024907114354
359.1324    0.03940186229989451


