PRECURSORMZ: 543.128572904
COMPOUNDNAME: challenge-227
FORMULA: C30H22O10
SMILES: c1(cc(c2c(c1)occ(c2=O)C(C(c1ccc(cc1)O)c1ccc(cc1)O)C(=O)c1c(cc(cc1O)O)O)O)O
INCHIKEY: KLKLIUIRQAMTAJ-UHFFFAOYSA-N
PRECURSORTYPE: [M+H]+
IONMODE: positive
CHARGE: 1
PARENTMASS: 542.1212969039999
NUM PEAKS: 37
153.0688    0.045975502423986035
171.0807    0.01490860818952313
181.0646    0.11458135791843543
182.0711    0.02642801223420033
196.1686    0.007415403616771942
197.0616    0.024852542875620585
198.7525    0.002280540522141666
198.8502    0.0031752515159030018
198.9641    0.003043962402688023
199.0756    1.0
199.3147    0.0026355073837969786
199.4295    0.002606332025304761
199.552     0.00338920414484593
199.661     0.004546493365037223
199.8691    0.006238664157585837
200.0811    0.17185258663865832
200.2484    0.0051251379751328695
200.3413    0.004920910465687348
200.4294    0.004142900905894881
200.6296    0.005271014767593957
200.6722    0.005285602446840066
200.8706    0.00415748858514099
201.0805    0.017976883390954667
201.2341    0.0027522088177658484
201.4273    0.0030147870441958055
201.5705    0.0026938581007814135
201.6255    0.002718170899524928
201.8492    0.002086038132193549
345.065     0.004619431761267767
380.9706    0.016766106013527644
382.9795    0.004108862987653961
397.9727    0.009185375365299802
398.985     0.006773545729943158
400.9816    0.009958522365343565
402.9729    0.00509110005689195
402.9897    0.00542661667955245
543.1286    0.062313703179627825


