PRECURSORMZ: 407.0983708399999
COMPOUNDNAME: challenge-114
FORMULA: C19H20O10
SMILES: O[C@H]1[C@@H](O[C@@H]([C@@H](O)[C@@H]1O)CO)c1c(cc(c(c1O)C(=O)c1ccc(cc1)O)O)O
INCHIKEY: BZYKNVLTMWYEFA-UHFFFAOYSA-N
PRECURSORTYPE: [M-H]-
IONMODE: negative
CHARGE: -1
PARENTMASS: 408.1056468399999
NUM PEAKS: 20
93.0341     0.013294754433663415
121.0224    0.015614477064677858
159.0373    0.013793619515602006
193.0095    0.07370731585642663
245.046     0.11573669900975281
257.045     0.05916539871791674
259.0607    0.028560025940984262
285.0412    0.03714050535032801
287.0563    1.0
288.0596    0.18697463271058343
288.4444    0.007981841311017436
289.0638    0.03162804619490659
299.0544    0.034396747399665764
317.0669    0.24741213738744355
318.0694    0.04814048040707391
341.9829    0.01504078222044848
389.0902    0.022299269162654962
390.0941    0.005861664712778429
399.9869    0.012471627048464743
407.0994    0.3373076251527774


