PRECURSORMZ: 269.080834864
COMPOUNDNAME: challenge-144
FORMULA: C16H12O4
SMILES: C\1(=C(/c2ccccc2)\O)/Oc2c(C1=O)ccc(c2)OC
INCHIKEY: TXVHSAPNXGBCKX-JQIJEIRASA-N
PRECURSORTYPE: [M+H]+
IONMODE: positive
CHARGE: 1
PARENTMASS: 268.073558864
NUM PEAKS: 12
77.0334     0.01721593703885883
105.0326    0.07230070918453119
135.0447    0.08050707627936515
163.0398    0.10193204530313124
180.0584    0.06609923602333646
182.5139    0.0015192363969191876
191.0326    0.5407609880017683
192.0385    0.07052619126190017
208.0536    0.04802405872720367
223.0761    0.17980536340259143
251.0715    0.10120355899805114
269.0799    1.0


