PRECURSORMZ: 405.22716474399994
COMPOUNDNAME: challenge-202
FORMULA: C23H32O6
SMILES: C(=C(C)C)Cc1c(OC)c(c2c(c1O)C(=O)C(C(O2)C)C)C(CC(=O)O)CCC
INCHIKEY: UDVTWMLZUGXNQM-UHFFFAOYSA-N
PRECURSORTYPE: [M+H]+
IONMODE: positive
CHARGE: 1
PARENTMASS: 404.21988874399995
NUM PEAKS: 94
180.0416    0.0019219226501918892
192.0395    0.007794800906193603
200.5525    0.001054935460988608
203.0785    0.0019461740400996733
213.5507    0.000266765288985625
214.5523    0.0006062847476946023
215.0846    0.002417055194142481
215.5496    0.00031526806880119315
222.56      0.00026878623814460703
223.095     0.00266765288985625
223.5563    0.0007517930871413069
224.5546    0.00014550833944670455
231.0552    0.006897499479605592
233.0785    0.1649114723220908
234.085     0.032880842816637265
235.0994    0.0367630861510417
247.0969    0.08178781246400185
250.1119    0.001822896141401771
251.5853    0.00026878623814460703
260.1076    0.0020229701081409895
273.1492    0.004595638387525086
275.0957    0.26873369346647347
275.7575    0.0017844981073811127
276.1       0.05565491888920551
276.4225    0.001653136412047282
276.8442    0.0012974493600664489
277.1309    0.01921922650191889
278.1457    0.004458213844714309
285.1456    0.004577449845094247
289.1412    0.1701012697623566
289.9245    0.001283302715953575
290.149     0.03782812635782522
291.1519    0.015547161880048583
303.1576    0.15027777946190207
304.1636    0.03578494675809441
305.1671    0.007230956090837623
306.1562    0.0016834506494320123
319.1585    0.018530082838706028
320.1617    0.004623931675750833
329.1696    0.0014631671911029735
331.1558    0.2180644561524766
332.1665    0.05353696417059236
332.415     0.0013459521398820169
332.7384    0.0014813557335338116
345.2061    0.17068128217098444
346.2049    0.04638280414779605
346.5853    0.0015581518015751277
346.8613    0.001317658851656269
347.2155    0.007930204499845397
348.5647    0.0011095010882811221
348.78      0.0019724463791664392
348.8695    0.0017986447514939867
349.027     0.0021442270576799097
349.1649    1.0
349.7024    0.00538582950868705
349.737     0.005482835068318187
349.9229    0.009656095081616033
349.9632    0.009625780844231302
350.169     0.2205421398213885
350.4168    0.010050180167617525
350.4614    0.010048159218458542
350.7242    0.009870315692468126
350.7567    0.00982585481097052
351.1619    0.052496175353716625
351.3239    0.005145336558768191
351.4805    0.006784326326702599
351.558     0.006097203612648716
351.6428    0.004870487473146638
351.7293    0.001895650311125123
351.9147    0.004126778182641259
352.1544    0.011670981393121093
352.1691    0.01187913915649624
352.3492    0.0032597909934379784
352.4075    0.002974837162021515
352.6498    0.001267135122681719
352.8848    0.0015157118692365058
353.4297    0.0011196058340760323
353.5153    0.0012186323428661505
353.735     0.0007699816295721449
361.1787    0.008494049315201379
373.1267    0.0077665076179678555
374.1279    0.0020128653623460793
376.1198    0.0009761184437883096
377.1225    0.002655527194902358
377.6173    0.000800295866956875
378.1223    0.0015177328183954876
378.627     0.0008205053585466951
387.2147    0.09366088877302114
388.222     0.028624723887821158
388.4575    0.000814442511069749
389.2293    0.008485965518565449
393.1279    0.0033002099766176185
401.1619    0.028366042395471455
405.2283    0.06359927003316378


