PRECURSORMZ: 515.3014277479998
COMPOUNDNAME: challenge-079
FORMULA: C30H44O7
SMILES: C1C(C(C2C(C1)(C1C(CC2)(C2(C(CC1)C1C(CC2)(CCC1C(=C)C)C(=O)O)C(=O)O)C)C)(C(=O)O)C)O
INCHIKEY: FTGKHGAVFGGOMW-UHFFFAOYSA-N
PRECURSORTYPE: [M-H]-
IONMODE: negative
CHARGE: -1
PARENTMASS: 516.3087037479999
NUM PEAKS: 22
381.3087    0.0016281039545595454
407.2942    0.0011521215390586288
409.3059    0.002990145943531399
425.3017    0.0031536886196265853
426.2934    0.0011130665716329127
427.3179    0.002536131947207448
428.322     0.0011228303134893417
453.2996    0.008382172383744346
454.3035    0.0034295143270707063
469.2944    0.012829556799347781
470.2967    0.00437171541621611
471.3103    0.1316250039665201
472.3153    0.04619958552915819
472.5365    0.0014792068912490022
472.7163    0.001984480532319206
472.9242    0.0014279472465027496
473.13      0.0015621986970286493
473.3171    0.009375633117636003
473.5855    0.001144798732666307
473.7703    0.0014987343749618602
474.3077    0.0019478665003575969
515.3006    1.0


