PRECURSORMZ: 267.159085184
COMPOUNDNAME: challenge-164
FORMULA: C15H22O4
SMILES: C1C(C(=C2C(C1)(CCC1(C2OC(=O)C1C)O)C)C)O
INCHIKEY: NVXJDQXVTHYURW-UHFFFAOYSA-N
PRECURSORTYPE: [M+H]+
IONMODE: positive
CHARGE: 1
PARENTMASS: 266.151809184
NUM PEAKS: 73
73.0589     0.004284152221843799
91.0514     0.06333016652625165
93.0696     0.03990176922939036
97.0656     0.01568465771595533
105.0687    0.10480936418878951
107.0817    0.03583272088479395
111.0699    0.07915822682703856
116.0623    0.030598526538440855
117.0663    0.03706956817896643
119.0834    0.15378134690877804
129.0687    0.0733145714951512
131.0825    0.40624159750479505
132.0807    0.06162726083137649
133.1002    0.14114399412049403
134.1033    0.02421711151343503
142.078     0.18418269489307545
143.0849    0.12287808987757004
145.1007    0.0792837040887662
147.1164    0.18049007833366196
148.1147    0.024844497822073243
149.1174    0.019520676860200408
150.5498    0.0019180095721225375
156.0884    0.03456002294441358
157.0998    0.5138473120978005
158.0978    0.09529101762059262
159.1162    0.075842042052808
161.1259    0.06451323785111227
170.1051    0.03977629196766272
171.1145    0.031709896570885694
175.1142    0.28624948464696076
176.1145    0.06831340634914945
185.13      0.4070303117213688
186.135     0.07600336996074354
187.1477    0.07379855521895783
189.1262    0.05451090755910876
193.1179    0.03647803251653611
203.1429    0.7316937637800922
203.5852    0.0023482173266173123
203.8315    0.008980586875078423
204.1491    0.14827827271586572
204.3346    0.0055568501622241745
204.5264    0.0044813307759872375
204.7539    0.005162493053937297
205.158     0.10394894867979995
205.3405    0.0034237367128542497
206.1637    0.017082832918063347
213.1286    0.085324537974797
214.12      0.018337605535339776
221.1519    0.022783085665119114
222.1624    0.0036388405901016368
230.1291    0.03784035707243623
231.1383    0.6975280979439655
231.8686    0.00837112588954416
232.143     0.11739294100776167
232.3611    0.005969132593614999
232.8588    0.0057719540394715625
233.1218    0.024754871206553498
233.1394    0.024826572498969295
234.1275    0.0204707189847097
249.1485    1.0
249.6783    0.0062021617939663366
249.8454    0.009321168014053454
250.1548    0.1888432789001022
250.3378    0.008227723304712567
250.4862    0.0062738630863821325
250.8265    0.005754028716367613
251.157     0.02920035133633284
251.3271    0.0036209152669976876
251.6221    0.0042662268987398505
256.0561    0.02920035133633284
258.0678    0.02932582859806048
259.0748    0.026798358040403678
267.1635    0.019664079445032


