PRECURSORMZ: 357.0615914079999
COMPOUNDNAME: challenge-112
FORMULA: C18H14O8
SMILES: c1(c(cc2c(c1)C=C(C(C2c1ccc(c(c1)O)O)C(=O)O)C(=O)O)O)O
INCHIKEY: WJMFXQBNYLYADA-UHFFFAOYSA-N
PRECURSORTYPE: [M-H]-
IONMODE: negative
CHARGE: -1
PARENTMASS: 358.0688674079999
NUM PEAKS: 6
269.0799    1.0
281.0442    0.7878934624697336
311.0558    0.5878934624697337
313.0711    0.6745762711864407
314.0721    0.16997578692493948
357.0609    0.035351089588377724


