PRECURSORMZ: 345.13326435999994
COMPOUNDNAME: challenge-162
FORMULA: C19H20O6
SMILES: C1=C2C(=C)CC3C(C(CC(C1=O)(C)O2)OC(=O)C(=C)C)C(=C)C(=O)O3
INCHIKEY: FDLLEBFMOIHMNM-UHFFFAOYSA-N
PRECURSORTYPE: [M+H]+
IONMODE: positive
CHARGE: 1
PARENTMASS: 344.12598835999995
NUM PEAKS: 80
69.0305     0.0454808112412442
77.0322     0.009259650754724959
95.0468     0.12353247924682537
96.0448     0.011754259862162277
105.0684    0.047031133285414285
111.0409    0.05245726044000958
121.0638    0.04586134483390413
123.0397    0.05099150141643059
129.0697    0.14385579186221867
137.0601    0.08292813552633432
141.0687    0.07103293729652023
145.073     0.08180062858511972
146.0715    0.013826053866644115
152.0625    0.03970233816751934
154.0782    0.03183797725254746
157.0671    0.2276577452679943
157.0928    0.22672755204149225
161.0615    0.09335757473256945
162.0672    0.009076430876777586
163.076     0.03126012994517498
165.0613    0.04257748086761659
167.0861    0.11592180739362676
168.0949    0.011683790678336364
169.0998    0.061604160500613084
170.0734    0.08387242258960156
171.0808    0.0903978690118811
173.0918    0.034276211012924045
175.1057    0.04164728764111454
181.0591    0.016673008893210998
181.9937    0.01433343199019069
182.0635    0.01433343199019069
183.9872    0.00572209772666413
185.094     0.7488337350076811
186.0956    0.11510436486124619
187.0941    0.07320338815835835
187.1129    0.0689611432920384
189.0921    0.048172734063394076
195.0865    0.14408129325046157
197.0998    0.04901836426930503
197.1128    0.04800360802221189
199.0786    0.06898933096556875
203.0737    0.13651290290755852
203.1065    0.13655518441785405
204.0721    0.02307161078460389
204.1034    0.023804490296393387
213.0917    1.0
213.7634    0.0066804786266965455
214.0969    0.17005623440869305
214.3158    0.007385170464955675
215.1064    0.08134962580863389
216.0931    0.016687102729976182
223.079     0.06453567854777105
225.0155    0.0050455935619353656
231.1023    0.47438445167928067
231.7455    0.00326977012952236
232.1064    0.08064493397037475
232.3193    0.003608022211886742
232.5232    0.0034529900074697336
232.7266    0.004369089397206601
233.4249    0.00207179400448184
241.0874    0.34494665482784376
242.0917    0.05737600947105831
259.0968    0.7366425662057982
259.5832    0.003608022211886742
259.7828    0.004918749031048722
260.1026    0.13974039152678533
260.3566    0.005637534706073034
260.6385    0.006469071075218807
260.7169    0.007230138260538666
261.3493    0.003974461967781489
261.7521    0.0034529900074697336
277.1108    0.006905980014939467
286.0181    0.011599227657745268
315.034     0.011641509168040815
327.1176    0.006370414217862529
330.0169    0.04232379180584331
331.0227    0.03592518991445041
332.0297    0.012064324270996293
333.0245    0.031584288190774176
345.1336    0.9020196468084507


