PRECURSORMZ: 508.2915913359999
COMPOUNDNAME: challenge-046
FORMULA: C27H43NO8
SMILES: C1[C@@H]([C@@]2([C@@H]3[C@](C1)([C@@]1([C@@H]([C@@H](C3)O)[C@]3([C@@H](C1)[C@H]1[C@H]([C@H]([C@@H]3O)O)[C@@]([C@H]3N(C1)C[C@H](CC3)C)(O)C)O)O2)C)O)O
INCHIKEY: RNPABQVCNAUEIY-UHFFFAOYSA-N
PRECURSORTYPE: [M-H]-
IONMODE: negative
CHARGE: -1
PARENTMASS: 509.2988673359999
NUM PEAKS: 41
332.1937    0.005485044416316012
350.2101    0.015212160605749606
390.2473    0.013273579419109852
400.2243    0.008518353802469982
408.2503    0.017641088798421765
418.2396    0.07011962186263442
419.2382    0.016637587948867074
420.2297    0.0073323982529962485
426.2632    0.007024505946882876
436.249     0.12397796859498479
437.2486    0.042831240805993646
438.2458    0.01109552643882636
452.2459    0.013980591381296113
454.2601    0.14077520440628102
455.2648    0.04329878097453617
456.2578    0.01458497257477792
470.2555    0.023228763983442237
471.2659    0.00600960167858324
472.2683    0.254501499549565
473.2739    0.08154584744506405
474.2763    0.018131435804454178
490.2805    1.0
490.5349    0.005097328178988061
491.0656    0.006089425609797818
491.2836    0.3198887026330494
491.5473    0.009692905933198773
491.6573    0.012361305919514672
491.7365    0.010548162339069253
492.0763    0.00895168371477769
492.2887    0.07040470733125792
492.4569    0.005553464928785651
492.5488    0.012714811900607803
492.6133    0.014299887106154426
493.0832    0.0072069606468019125
493.2693    0.01500689906834069
493.3038    0.01574812128676177
493.5447    0.00684205124696384
493.789     0.005895567491133843
493.8384    0.00598679484109336
494.0477    0.004971890572793724
508.2916    0.09541240463891076


