PRECURSORMZ: 335.22168543999993
COMPOUNDNAME: challenge-170
FORMULA: C20H30O4
SMILES: C1C([C@@]([C@@H]2[C@](C1)(C)[C@@H](C(=C)CC2)CCC1=CCOC1=O)(C)CO)O
INCHIKEY: GVRNTWSGBWPJGS-UHFFFAOYSA-N
PRECURSORTYPE: [M+H]+
IONMODE: positive
CHARGE: 1
PARENTMASS: 334.21440943999994
NUM PEAKS: 183
55.042      0.003310929847017093
67.0519     0.008303301955857418
69.0812     0.003339268761542204
77.0273     0.005903940526064717
79.0547     0.018207752582383586
81.0673     0.020493758354075842
91.0524     0.038630663650146654
92.0394     0.003646273668897569
93.0642     0.05484996906335164
94.0605     0.005001818413682029
95.0772     0.03879125083245561
96.0678     0.003953278576252934
105.0673    0.0684573711878256
106.0732    0.006876909924760182
107.0844    0.06983653169471432
108.0787    0.007070559174015104
109.0974    0.046565559717177636
110.0759    0.004350023379604483
110.1063    0.003854092375415047
111.0781    0.0666861890300062
112.0623    0.00687218677233933
113.0365    0.005861432154277051
117.069     0.03790329817733548
119.0851    0.0950487193172211
120.0851    0.010853804263117377
121.1008    0.07998186309470394
123.035     0.009077898952877108
125.0584    0.03137117837929748
126.07      0.002474931868526329
130.0762    0.006858017315076775
131.0847    0.05336689920320419
133.1013    0.13171927471271427
134.0946    0.01760791222493541
135.1157    0.04230527623356934
139.0655    0.027266758925577287
144.0872    0.00935184179328651
145.1026    0.06524090438922554
146.0994    0.009073175800456256
147.116     0.04010428720545241
148.1134    0.005606381923551056
149.1309    0.01443867695054387
151.106     0.011019114597847188
153.092     0.04018458079660689
154.0831    0.005705568124388942
157.0993    0.04721263159883433
159.1146    0.06996405681007732
161.1115    0.02757376383293265
161.1302    0.0276871194910331
162.1226    0.006324301091520525
163.1007    0.007797924646826278
165.0873    0.01605871823089603
167.1027    0.0171875516594796
169.099     0.022510544437779553
170.1033    0.010050868351572574
171.1177    0.05402341738970258
173.1296    0.030913032594474858
174.1307    0.005322992778299949
175.1194    0.008714216216471522
177.055     0.02241608138936252
177.0911    0.02241608138936252
179.1063    0.03867317202193432
180.1059    0.003414839200275832
181.1128    0.012913098718608747
183.1144    0.019237399810129275
185.1292    0.029836153842520655
186.1265    0.004968756346736066
189.1031    0.018835931854356874
190.138     0.003792691393943974
191.1077    0.08132323838222584
191.5797    0.0007273654728111731
192.1074    0.010235071295985793
193.1191    0.02173594744075986
198.5963    0.0007887664542822461
201.1605    0.023691332542992497
202.1649    0.006078697165636232
203.1065    0.08545127359805028
204.1047    0.01305007013881345
205.12      0.1309021693439069
206.1231    0.02189181147064797
206.5761    0.0012374659342631645
207.1318    0.008350533480065935
207.5935    0.0007887664542822461
211.1448    0.012095993349801394
213.1604    0.02332292665416606
215.1089    0.0358062185024773
216.0972    0.00444920958044237
217.1231    0.14398057839724546
218.1256    0.023686609390571645
219.1404    0.03886682127118924
220.1402    0.005563873551763389
223.0154    0.0035329180107971266
223.1653    0.0030794953783953565
229.1254    0.06361141680403168
230.1248    0.008884249703622185
231.1396    0.07622695692012678
232.1169    0.012464399238627829
232.14      0.012440783476523571
239.1432    0.014084440518979988
241.1612    0.05060385503700591
242.1642    0.00947936690864951
243.1401    0.03618407069614544
244.1432    0.007042220259489994
245.1528    0.022307448883682926
246.1635    0.0030275407017659865
257.1552    0.08248513387775537
258.1588    0.017163935897375342
258.76      0.0016861654142440834
259.1693    0.5474369813388248
259.4217    0.0013508215923636073
259.8759    0.004175266740032968
259.937     0.004685367201484959
260.1755    0.11790877703414368
260.3438    0.003235359408283465
260.4808    0.0035754263825847924
260.5305    0.0030417101590285425
260.8642    0.003731290412472901
260.8848    0.0034809633341677574
261.178     0.0167766373988655
261.3126    0.0029094618912446925
261.3407    0.0029047387388238407
261.5013    0.0020309555409662628
261.6331    0.0015444708416185301
262.1846    0.0017145043287691937
269.1896    0.032471672893355945
270.1901    0.007462580824945802
271.1815    0.04744878921987692
272.1822    0.008955096989934963
281.1863    0.013886068117304215
286.6783    0.0011807881052129433
286.953     0.0018703683586573023
287.2012    1.0
287.4691    0.004184713044874671
287.7262    0.004850677536214772
287.9036    0.0035707032301639406
287.9734    0.00567250605744298
288.2068    0.23429197583635222
288.4052    0.005889771068802161
288.4762    0.005903940526064717
288.7731    0.008714216216471522
288.8088    0.008690600454367264
289.2148    0.04059077190480014
289.35      0.0035754263825847924
289.4504    0.0038068608512065293
289.6551    0.0029094618912446925
289.7299    0.0035329180107971266
289.8574    0.0031172805977621705
290.204     0.0065557355601422625
290.2213    0.0064423799020418195
290.628     0.0017145043287691937
290.9387    0.0028669535194570266
291.4469    0.0012421890866840164
299.2004    0.4987365567274222
299.4217    0.0012658048487882753
299.7874    0.002276559466850555
299.9756    0.003098387988078763
300.2048    0.12844613008506398
300.4293    0.0035093022486928677
300.4483    0.003523471705955423
300.6696    0.003400669743013277
300.7135    0.0033203761518587967
300.8526    0.0034290086575383873
300.9151    0.0031645121219706883
301.2081    0.022789210430609805
301.3328    0.002248220552325444
301.5474    0.002881122976719582
301.6465    0.0018845378159198576
302.4621    0.0013460984399427554
316.9389    0.0007887664542822461
317.2114    0.2779055652904975
317.357     0.0005101004614519916
317.6454    0.000562055138081361
317.8738    0.0018184136820279329
318.2166    0.07070559174015105
318.3813    0.0019459387973909308
318.6668    0.0017995210723445257
318.8744    0.0027016431847272145
319.2178    0.012407721409577608
319.391     0.001336652135101052
319.8595    0.0014925161649891605
320.2233    0.0022387742474837408
320.46      0.0007320886252320249
320.7453    0.0015208550795142712
335.223     0.042437524501353185


