PRECURSORMZ: 431.1558857159999
COMPOUNDNAME: challenge-064
FORMULA: C19H28O11
SMILES: c1cccc(c1)CO[C@@H]1O[C@@H]([C@H]([C@@H]([C@H]1O)O)O)CO[C@@H]1O[C@@H]([C@H]([C@@H]([C@H]1O)O)O)CO
INCHIKEY: LLEMMFPELBNINR-UHFFFAOYSA-N
PRECURSORTYPE: [M-H]-
IONMODE: negative
CHARGE: -1
PARENTMASS: 432.1631617159999
NUM PEAKS: 6
71.0068     0.03746537732640069
101.0255    0.07886680596724817
161.0404    0.11482579328441615
269.105     0.17274891880071916
270.1041    0.02478254531318334
431.1547    1.0


