PRECURSORMZ: 391.2115146799999
COMPOUNDNAME: challenge-035
FORMULA: C22H30O6
SMILES: C/C=C(/C)\C(=O)O[C@@]1(C)[C@@H]2CC[C@]3(C)[C@@H](CC=C(C)[C@H]3C2OC1=O)OC(=O)C	
INCHIKEY: TURJFYBHQNTMCA-PUQWFUBYSA-N
PRECURSORTYPE: [M+H]+
IONMODE: positive
CHARGE: 1
PARENTMASS: 390.2042386799999
NUM PEAKS: 12
119.0829    0.016
142.0776    0.028999999999999998
145.0995    0.013999999999999999
149.0196    0.013000000000000001
157.0994    0.256
159.1067    0.021
170.1039    0.02
185.1317    0.267
187.1269    0.019
195.1145    0.043
213.1261    0.6709999999999999
231.1369    1.0


