PRECURSORMZ: 381.20603537599993
COMPOUNDNAME: challenge-022
FORMULA: C24H28O4
SMILES: CC1=CCC2C(C)(C)C(=O)CCC2(C)C1COc1ccc2ccc(=O)oc2c1	
INCHIKEY: VPAXJOUATWLOPR-UHFFFAOYNA-N
PRECURSORTYPE: [M+H]+
IONMODE: positive
CHARGE: 1
PARENTMASS: 380.19875937599994
NUM PEAKS: 30
91.0537     0.062
93.0689     0.036000000000000004
95.0821     0.022000000000000002
105.069     0.065
107.0486    0.063
107.0856    0.057
109.0996    0.022000000000000002
117.0705    0.036000000000000004
119.0472    0.076
119.0849    0.076
121.1015    0.033
131.0853    0.049
133.1002    0.106
135.1177    0.038
145.0997    0.113
147.1172    0.027000000000000003
159.1162    0.11
161.1321    0.102
163.0381    0.794
163.1084    0.016
173.1296    0.043
175.0332    0.017
175.151     0.02
177.1277    0.037000000000000005
201.1647    0.18600000000000003
213.0539    0.017
219.1747    0.065
323.1619    0.026000000000000002
363.1978    0.078
381.2084    1.0


