PRECURSORMZ: 718.2352582320001
COMPOUNDNAME: challenge-090
FORMULA: C34H41NO16
SMILES: [C@@H]1([C@H]2[C@]([C@]34[C@@]([C@H]1OC(=O)C)([C@@H](C(=O)[C@H]([C@H]3O)[C@](O4)(C)COC(=O)c1c(nccc1)[C@H]([C@@H](C(=O)O2)C)C)OC(=O)C)COC(=O)C)(C)O)OC(=O)C
INCHIKEY: GARAEILXWIXANX-UHFFFAOYSA-N
PRECURSORTYPE: [M-H]-
IONMODE: negative
CHARGE: -1
PARENTMASS: 719.2425342320001
NUM PEAKS: 36
59.016      0.0023391439023894133
145.0535    0.02340306209918551
158.0684    0.0017231209119464872
160.0765    0.15713526063293454
160.661     0.0019119958854313466
161.0796    0.02093606436859096
161.439     0.0013860517284965841
178.0859    0.00902531796375344
189.0438    0.0023682015906178536
203.0638    0.0030743034145689434
204.0647    0.11284262646632358
205.0691    0.019430876118357775
205.5499    0.0012233286744173207
206.0692    0.003655457179137742
215.0588    0.0016940632237180471
222.0792    0.006250308737937427
259.0603    0.01167537913018716
261.0828    0.0031614764792542633
277.0855    0.0020020747189395107
291.0941    0.004317972470746172
319.0882    0.00417849556724966
333.095     0.004248234018997916
351.1096    0.00369032640501187
369.1188    0.05379449821731082
393.1115    0.005099624284091206
411.1291    0.01994519720000116
412.1257    0.004317972470746172
453.141     0.011750929119581102
454.1402    0.002472809268240237
538.1733    0.0025716054082169327
598.1962    0.0013279363520397043
658.2132    0.03806266581043345
659.2157    0.014630546023019499
660.2188    0.004387710922494428
676.2201    0.008961391049650871
718.2345    1.0


