PRECURSORMZ: 301.107049612
COMPOUNDNAME: challenge-183
FORMULA: C17H16O5
SMILES: c1(c2c(c(c3c1occ3)OC)ccc(=O)o2)OCC=C(C)C
INCHIKEY: BMLZFLQMBMYVHG-UHFFFAOYSA-N
PRECURSORTYPE: [M+H]+
IONMODE: positive
CHARGE: 1
PARENTMASS: 300.09977361200004
NUM PEAKS: 106
69.0669     0.003130471999988433
70.0623     0.0002602701893754817
88.0752     0.000187972914548959
95.022      0.0010945807408735536
132.0662    0.0004952363325616805
137.125     0.0016035535556522735
189.0197    0.014666225171308393
190.0252    0.023195134682593276
191.0313    0.0036524583242359267
201.0131    0.0034926813468693116
202.0256    0.009382740326986116
203.035     0.006280464264180027
204.0298    0.001363526603228218
215.0349    0.06504875005241553
215.6658    0.0005147565967648416
216.0342    0.010590104816589044
216.2406    0.000471378231868928
216.5547    0.00043956743094525797
217.0129    0.07250043016878523
217.3614    0.00047499309561025414
217.667     0.0008784118891422508
218.0194    0.48164805975803554
218.1654    0.0021833776997609855
218.6602    0.002392316824009636
218.8443    0.0046176269431700044
219.0281    0.05775323204967112
219.3291    0.004505566167188895
219.6037    0.0030314247334760967
220.024     0.01035730759164764
220.1847    0.0013172563473392435
220.4357    0.0007258646392582879
220.6366    0.0005776552258639164
221.0078    0.0011155469505732454
221.5768    0.00042004716674209685
228.9901    0.0006065741357945255
229.7233    0.00030798639076098667
230.0243    0.06072971085427906
230.6618    0.00046125661339321475
231.4176    0.0004692093136241323
231.6457    0.000414263384755975
231.778     0.0005660876618916727
232.0371    0.03836237996844947
232.3438    0.0005762092803673859
232.4801    0.0005964525173188123
232.6482    0.001312195538101387
232.6845    0.0013071347288635305
232.8344    0.0018016480886769454
232.8817    0.001794418361194293
233.0445    1.0
233.2206    0.003147823345946798
233.2721    0.003144931454953737
233.4542    0.004637147207373166
233.6902    0.00661013983738897
233.7725    0.01027416572559714
233.8839    0.009406598427678867
234.0499    0.16227557118461977
234.2857    0.008667720278951806
234.4658    0.007001268094200458
234.5338    0.008162362327914412
234.659     0.005553876652173473
234.8085    0.006803896533924051
235.0505    0.024224647876122957
235.1889    0.003953937960262526
235.3829    0.0021696412175439463
235.6104    0.002064087196297223
235.8573    0.0023272492766657654
236.0553    0.0030408233792035447
236.2995    0.000519094433254433
236.4642    0.0006340471002286041
236.6318    0.0003412431371811871
236.8331    0.0005169255150096373
237.452     0.00036943907436353096
237.7525    0.000267499916858134
238.0611    0.0006904389745932917
238.1374    0.0005364457792127984
238.9999    0.02725245774585773
239.0209    0.026500566087661895
240.9926    0.0004814998503446411
245.0483    0.031246159207274842
246.0544    0.0044730323935169595
247.9574    0.0011422969422590586
254.021     0.11316330942221464
255.03      0.036938123654366974
255.3532    0.00039257420230801824
256.0298    0.00560448474455204
256.4159    0.00037016204711179623
257.0462    0.0009543240277100996
259.071     0.004455681047558594
260.0328    0.001255803663736699
260.0812    0.000853830815701233
268.0876    0.001127837487293754
270.0099    0.0006036822448014645
270.9917    0.0028246545274722415
271.9498    0.0013714793034591355
272.9471    0.0014886008886781023
275.0724    0.0006456146642008476
283.0998    0.0007396011214753272
287.9754    0.0027899518355555108
288.9746    0.0061929845616399345
288.9988    0.006133700796282185
289.9684    0.0013476212027663831
290.9708    0.001971546684519274
291.9953    0.0005082498420304545
295.0159    0.002312066848952196
297.0101    0.0009919186106198913
301.1067    0.0793057726482058


