PRECURSORMZ: 451.12458558799983
COMPOUNDNAME: challenge-071
FORMULA: C21H24O11
SMILES: c1(c(ccc(c1O)C(=O)[C@@H](Cc1ccc(c(c1)O)O)O)O)[C@H]1[C@@H]([C@H]([C@@H]([C@H](O1)CO)O)O)O
INCHIKEY: LNVWGAALAQOWHF-UHFFFAOYSA-N
PRECURSORTYPE: [M-H]-
IONMODE: negative
CHARGE: -1
PARENTMASS: 452.1318615879998
NUM PEAKS: 48
123.0452    0.0456395199093391
151.0369    0.07448616906196878
161.0229    0.21709679081028177
163.0373    0.1758872920208108
167.0306    0.02171225467470252
179.0328    0.044119919641477365
181.0452    0.035362901148714786
192.0249    0.037552155771905425
193.0447    0.035568948642662135
203.0148    0.02642559109874826
207.0204    0.060320403853088136
208.0295    0.013573378663782002
209.045     0.5943182403544017
210.0492    0.08594756091279039
221.045     0.15177973522897026
239.056     0.2626590429093906
240.0588    0.03562046051614898
251.0547    0.031447998763715033
295.0602    0.02336063462628136
301.0687    0.02096533250914336
311.0592    0.0585432442177922
313.0726    0.16767114819966003
325.0683    0.02130015968680781
327.0633    0.020398701900788133
328.0748    0.020501725647761808
329.0694    0.07513006748055427
330.0734    0.014552104260031938
331.0822    0.8830422912481327
332.0865    0.1824035440168959
332.2606    0.011667439344768969
332.6735    0.011950754648946581
333.0873    0.037680935455622525
333.4475    0.010276618760624323
341.06      0.020578993457992068
343.0828    0.0725029619327255
345.0583    0.01329006335960439
359.0766    0.029979910369340133
361.0965    0.2656724875083707
362.0999    0.053108741564930714
373.0901    0.032838819347859684
385.0024    0.06928346983979808
403.1024    0.017514036985525165
414.0049    0.022536444650491937
431.0959    0.00484211610776284
433.1149    0.033843300880853036
434.1173    0.009400916911348065
444.0093    0.019291196620821103
451.125     1.0


