PRECURSORMZ: 333.20713343999995
COMPOUNDNAME: challenge-056
FORMULA: C20H30O4
SMILES: C1CC(C2C(C1)(C(=O)C1(CC2)C(CC(C1)(C)C=C)O)C)(C)C(=O)O
INCHIKEY: JSXYBZIRJXMIMK-UHFFFAOYSA-N
PRECURSORTYPE: [M-H]-
IONMODE: negative
CHARGE: -1
PARENTMASS: 334.21440943999994
NUM PEAKS: 17
95.0532     0.0011230219499744768
97.0585     0.024206579711675558
98.0761     0.0018517540617134006
137.0996    0.0013553713189347135
191.143     0.007018007076094418
235.134     0.05326257238914999
236.1374    0.008487792857017127
245.2051    0.0018482336167291546
259.1895    0.0013166464241080073
263.1659    0.003956980162292514
271.2046    0.005328193483656334
272.2173    0.0014257802186196334
287.2008    0.00674341236732323
289.2115    0.01817957789864639
290.2102    0.004437520902642094
328.4424    0.0004911020753023182
333.2072    1.0


