PRECURSORMZ: 317.17473524799993
COMPOUNDNAME: challenge-211
FORMULA: C19H24O4
SMILES: c1c(ccc(c1)CCC(CC(CCc1ccc(cc1)O)O)O)O
INCHIKEY: GZVIQGVWSNEONZ-UHFFFAOYSA-N
PRECURSORTYPE: [M+H]+
IONMODE: positive
CHARGE: 1
PARENTMASS: 316.16745924799994
NUM PEAKS: 30
77.0375     0.037790324650327216
105.0674    0.0927755678172719
107.0484    1.0
108.0468    0.08976004106249198
121.0629    0.07153856024637495
133.0647    0.569677916078532
134.0674    0.07590145001924804
145.0669    0.2228281791351213
146.0695    0.06358270242525343
147.0807    0.3767483639163352
148.0738    0.05889901193378674
159.0834    0.08180418324137047
161.0912    0.2115359938406262
162.0991    0.028615424098549985
186.0469    0.01956884383421019
186.5524    0.004619530347747979
187.066     0.8737328371615553
187.108     0.8766200436288978
188.1024    0.14776081098421662
205.1227    0.020852046708584628
206.0044    0.08141922237905813
250.0164    0.07288592326446812
263.142     0.04844090850763506
281.1549    0.5583215706403183
282.1627    0.1603361991530861
282.6797    0.006159373796997305
283.161     0.042409854998075196
299.1712    0.12588220197613242
300.1675    0.020082124983959965
317.1755    0.23944565635827025


