PRECURSORMZ: 303.2318562
COMPOUNDNAME: challenge-186
FORMULA: C20H30O2
SMILES: C1CC(C2C(C1)(C1=CCC(CC1CC2)(C=C)C)C)(C)C(=O)O
INCHIKEY: TVHDZSRRHQKNEZ-UHFFFAOYSA-N
PRECURSORTYPE: [M+H]+
IONMODE: positive
CHARGE: 1
PARENTMASS: 302.2245802
NUM PEAKS: 10
81.069      0.09175150091359957
105.0615    0.1750195771339076
175.1475    0.3416862438005743
201.1485    0.19015922735578175
241.1981    0.24758548681806314
257.2286    1.0
258.2243    0.22500652571130253
285.2016    0.1859827721221613
287.1951    0.153876272513704
303.2307    0.7856956408248499


