PRECURSORMZ: 223.18048932399998
COMPOUNDNAME: challenge-010
FORMULA: C13H22N2O
SMILES: CC(=O)N1CCCC(=C1)[C@H]1CCCCN1C	
INCHIKEY: SWGUPFWFYUMIGH-CYBMUJFWSA-N
PRECURSORTYPE: [M+H]+
IONMODE: positive
CHARGE: 1
PARENTMASS: 222.173213324
NUM PEAKS: 8
60.0456     0.013999999999999999
91.0555     0.166
105.0708    0.198
133.1031    1.0
150.1296    0.69
164.1445    0.012
192.1396    0.43700000000000006
223.181     0.953


