PRECURSORMZ: 329.17583331199995
COMPOUNDNAME: challenge-123
FORMULA: C20H26O4
SMILES: C1(C=C2C3(C(C1)C(C(CC3)C)(CCc1cocc1)C)COC2=O)O
INCHIKEY: QXAYVHFIMKYRKA-UHFFFAOYSA-N
PRECURSORTYPE: [M-H]-
IONMODE: negative
CHARGE: -1
PARENTMASS: 330.18310931199994
NUM PEAKS: 22
159.115     0.001993912030889293
227.1351    0.0060634537988518665
255.1811    0.10883164109583443
256.1802    0.022836012993115284
285.1897    0.03804367811395534
286.1887    0.008535414410917486
299.1656    0.7563831743242967
299.4621    0.0059163619277206895
299.9101    0.008984861794929416
300.1696    0.18855134936362336
300.4336    0.011129951582259085
300.7136    0.014574352897914155
301.1671    0.031649267605058325
301.3104    0.010055363745939652
301.5771    0.003603750842713845
301.7911    0.004273836033422541
302.18      0.00688471674600094
302.3908    0.0028682914870579584
302.5544    0.002962266849169544
302.7491    0.0023984146765000307
302.9383    0.00240250056180923
329.1755    1.0


