PRECURSORMZ: 323.12888311999995
COMPOUNDNAME: challenge-086
FORMULA: C20H20O4
SMILES: c1c(ccc(c1O)C(=O)/C=C/c1ccc(cc1)OCC=C(C)C)O
INCHIKEY: VVSZRCIUFBADJQ-BJMVGYQFSA-N
PRECURSORTYPE: [M-H]-
IONMODE: negative
CHARGE: -1
PARENTMASS: 324.13615911999995
NUM PEAKS: 28
92.0264     0.3255282436277774
120.0214    0.1967215596052552
134.9971    0.05809166313495187
145.0331    0.01360719258945329
148.016     0.936217230731973
148.5392    0.009248047466246898
148.9876    0.09758127989344312
149.0192    0.10029060967488043
149.3235    0.008476115517345765
253.0508    0.08259671853242115
254.0578    1.0
254.3004    0.005903009021008657
254.3706    0.007537688442211055
254.5975    0.006372222558576013
254.6696    0.007159290428043833
254.8486    0.011230853060483138
254.94      0.01280498879941878
255.0644    0.20698371374947025
255.227     0.01439426045892111
255.4147    0.010580008476115519
255.8324    0.010050251256281407
255.9177    0.010368105588181874
256.0702    0.031512986619846216
256.3152    0.007598232124477811
256.4206    0.007734455409578011
256.5244    0.00600896046497548
257.1094    0.005675970212508325
323.129     0.7083913543621723


