PRECURSORMZ: 314.17507004808994
COMPOUNDNAME: challenge-023
FORMULA: C19H24NO3+
SMILES: C[N+]1(C)CCc2cc(c(cc2[C@H]1Cc1ccc(cc1)O)O)OC	
INCHIKEY: CLWOXNLVWMXBRD-QGZVFWFLSA-O
PRECURSORTYPE: [M]+
IONMODE: positive
CHARGE: 1
PARENTMASS: 313.16779404808995
NUM PEAKS: 8
58.0666     0.024
107.0484    0.045
175.0763    0.035
237.0931    0.023
239.104     0.021
269.1193    0.22399999999999998
271.1338    0.11
314.1749    1.0


