PRECURSORMZ: 743.2756906320001
COMPOUNDNAME: challenge-150
FORMULA: C34H46O18
SMILES: O([C@@H]1O[C@@H]([C@@H](O)[C@H](O)[C@H]1O)CO)c1c(cc([C@@H]2OC[C@H]3[C@@H]2CO[C@H]3c2cc(c(O[C@@H]3O[C@@H]([C@@H](O)[C@H](O)[C@H]3O)CO)c(c2)OC)OC)cc1OC)OC
INCHIKEY: FFDULTAFAQRACT-UHFFFAOYSA-N
PRECURSORTYPE: [M+H]+
IONMODE: positive
CHARGE: 1
PARENTMASS: 742.268414632
NUM PEAKS: 68
107.0475    0.04397957502882557
117.0681    0.17799374073464008
127.0533    0.15783231757535826
129.0674    0.030242134738922746
145.0658    0.466710591335859
146.0692    0.05883709438313293
167.0701    0.2586394333717674
168.0691    0.032581123373414594
173.0596    0.7826058309998353
174.0623    0.10848295173776973
190.061     0.4545873826387745
191.0667    0.07833964750452974
203.0694    0.09807280513918629
205.0853    1.0
205.6959    0.007939383956514577
206.0902    0.15111184318893098
207.0835    0.054389721627408995
217.0866    0.7226486575522978
218.0895    0.10709932465821118
219.0977    0.09171470927359578
235.0993    0.2377203096689178
236.1063    0.03943337176741888
247.0962    0.14122879262065557
248.0885    0.03604019107231099
263.0991    0.03910393674847636
265.1083    0.4664799868225992
266.112     0.08038214462197332
267.1085    0.01917311810245429
276.9758    0.023949925877120738
308.1063    0.022302750782408173
315.0866    0.09089112172623949
316.0876    0.02523472245099654
319.1017    0.03310821940372262
323.1288    0.061999670564981055
325.1117    0.044045462032614065
330.1106    0.2554768571899193
331.1138    0.1477845494976116
332.119     0.02994564322187449
339.1205    0.05155658046450338
351.1253    0.11658705320375555
352.1276    0.058738263877450174
369.1351    0.08025037061439631
370.1268    0.017525943007741723
371.162     0.040125185307198157
378.0265    0.14633503541426454
379.0298    0.1067369461373744
380.0234    0.021940372261571403
383.1502    0.3543732498764619
384.1532    0.08611431395157304
391.1107    0.00774172294514907
391.6107    0.004743864272772196
401.1586    0.5956185142480646
402.1647    0.16603524954702684
403.1656    0.041541755888650965
404.1768    0.006918135397792785
417.1542    0.046680942184154174
418.1626    0.15107889968703675
419.1698    0.24276066545873826
420.1754    0.06694119584911876
421.1742    0.01548344589029814
579.2019    0.032877614890462856
581.2201    0.0291879426783067
598.2541    0.02879262065557569
599.2569    0.008137044967880085
603.2051    0.041838247405699226
634.1344    0.2076099489375721
635.1385    0.20210838412123208
743.2746    0.031658705320375555


