PRECURSORMZ: 337.23733550399993
COMPOUNDNAME: challenge-135
FORMULA: C20H32O4
SMILES: CC(=CCC/C(=C\CC/C(=C/CC/C(=C/CO)/CO)/C)/C(=O)O)C
INCHIKEY: GWVCYAYKRPLWGK-AAMZJHKISA-N
PRECURSORTYPE: [M+H]+
IONMODE: positive
CHARGE: 1
PARENTMASS: 336.23005950399994
NUM PEAKS: 208
55.0463     0.009490738574142885
67.0485     0.021078050561114177
69.0615     0.015743020001684746
77.0172     0.014844488539043998
79.0503     0.03899252159751406
79.0729     0.03751368856525117
80.0767     0.005072958882825882
81.0672     0.06268192922192792
82.0783     0.0032571765520727058
83.0727     0.01779279490083395
91.0498     0.10927452944094496
92.0414     0.012598159882442133
93.056      0.10658829475575855
94.0488     0.009808968467161483
95.0801     0.09164084948662031
96.0702     0.010024241630085827
97.0922     0.008582847408766298
105.0677    0.18274819591729766
106.0742    0.018850441309983996
107.0839    0.1569622148800554
108.0791    0.016903623140929042
109.0979    0.12123622953734989
110.0844    0.012373527016781946
111.1001    0.011315880607631902
117.0609    0.0813264570717234
119.0846    0.23134377252178467
120.0708    0.027667281287146323
121.1004    0.10356511077208187
123.1112    0.07125541692795836
124.0925    0.009911925197255735
125.0945    0.0133188569931019
127.0654    0.006467554590466206
128.0595    0.039572823167136215
129.0638    0.09245514362463847
131.0746    0.2045282241835999
132.0485    0.027695360395353842
132.0791    0.0280042305856366
133.1004    0.17596241143381286
134.0615    0.021957862618283242
134.09      0.022126337267528384
135.1164    0.17034658979230818
137.1245    0.02656283636431707
143.0551    0.16969141060079931
143.0847    0.16929830308589397
144.087     0.03383532539006561
145.101     0.22460478655197907
146.1036    0.028855963534598142
147.1139    0.17972501193362098
148.1076    0.031504759408841176
149.1065    0.08194419745228891
151.0843    0.014385863104987785
155.0821    0.034443706067895284
157.0825    0.19242612854615737
157.1       0.19244484795162903
158.1031    0.03724225718591177
159.1143    0.21281156110481927
160.1129    0.033460937280631965
161.1281    0.13577184788611113
162.091     0.019533699609700392
162.1174    0.019599217528851284
163.1439    0.038683651407231304
164.1603    0.0033882123903744817
165.0902    0.05621437463146171
166.0705    0.007852790595370692
167.081     0.01841053528139946
169.0968    0.034892971799215654
171.1198    0.18063290309899757
172.1262    0.029820012916389776
173.1308    0.18345017362248575
174.1223    0.029791933808182253
175.1169    0.08228114675077919
176.0854    0.012270570286687694
176.1351    0.011241002985745171
177.0806    0.03909547832760831
179.1       0.02533671530592188
180.094     0.007450323377729522
181.1012    0.03230969384412351
183.1046    0.0384777379470428
185.1285    0.24221974710083208
186.132     0.046274370325998446
187.1478    0.10600799318613639
188.1492    0.01610804840838255
189.1264    0.06540560271805766
190.0896    0.01249520315234788
191.1041    0.03115845040761505
192.1007    0.006795144186220645
193.1179    0.03132692505686019
195.1196    0.039853614249211446
197.1287    0.031635795247142946
199.1484    0.3242107430668002
200.1551    0.06028584532155259
201.1588    0.042858078827416435
202.1487    0.008376933948577792
203.1104    0.028041669396579965
204.0789    0.004932563341788265
205.1187    0.06208290824683407
206.1191    0.00700105764640915
207.1347    0.06856918224277198
208.0958    0.011521794067820406
208.1331    0.011437556743197836
209.1311    0.05702866876947987
211.1462    0.025963815389223235
213.1636    0.22070179051113337
214.1586    0.04376596999279303
214.2766    0.004904484233580741
215.1743    0.03702698402298743
217.1595    0.014872567647251523
219.1387    0.07776041032936794
220.1038    0.012017858312819985
220.1417    0.009238026600275175
221.1321    0.015396711000458625
221.1516    0.015621343866118811
223.1464    0.05797399874579983
224.166     0.009715371439803071
225.1555    0.02575790192903473
227.1637    0.07152684830729776
228.1864    0.018878520418191515
229.1824    0.01797998895555077
231.1389    0.08336687226813677
232.1391    0.011194204472065965
233.1526    0.025860858659128988
234.1485    0.0037064422833930793
237.1458    0.018541571119701238
239.1497    0.015115919918383392
240.1316    0.011409477634990313
241.1594    0.052835521943823065
242.1257    0.010847895470839846
242.1837    0.008564128003294615
243.2015    0.0229499911082824
244.2255    0.004698570773392237
245.1545    0.13196244887262382
246.1574    0.022538164187905392
255.2107    1.0
255.5038    0.0036502840669780327
255.6906    0.003594125850562986
255.8959    0.006682827753390553
256.2155    0.26978407165788415
256.4026    0.006177403805655133
256.4258    0.005550303722353778
256.6082    0.005203994721127657
256.6439    0.005297591748486068
256.87      0.008554768300558775
257.2227    0.07664660570380284
257.4124    0.003846837824430696
257.8688    0.004090190095562565
258.2268    0.015817897623571473
259.1731    0.06323415168334254
260.173     0.012644958396121338
261.1853    0.005016800666410835
265.1955    0.1710298480920246
266.1977    0.0367929914545914
267.0864    0.03589445999195066
268.0975    0.011512434365084565
271.1929    0.0183730964704561
273.2216    0.15428533989760485
274.2251    0.037925515485628176
275.2075    0.00909763105923756
283.2052    0.45501258880017964
283.4886    0.0016941061951872408
283.7133    0.0026113570632996692
283.9864    0.003753240797072285
284.2112    0.1119514044233955
284.431     0.004455218502260368
284.7009    0.0031542198219784543
284.8471    0.003959154257260789
285.1987    0.01727801125036269
285.5661    0.0027985511180164914
288.2782    0.013515410750554563
289.2094    0.01671642908621222
290.205     0.004520736421411256
291.2217    0.008507969786879569
294.0964    0.007469042783201205
297.2049    0.014292266077629373
300.6794    0.0016660270869797175
300.9676    0.0036970825806572384
301.2153    0.8161379994571373
301.3627    0.0023492853866961187
301.7624    0.005110397693769246
302.0334    0.007375445755842794
302.2203    0.2258121882049026
302.3662    0.007394165161314477
302.4055    0.006748345672541439
302.5412    0.005260152937542704
302.7128    0.005437987289523685
303.2181    0.0384777379470428
303.4255    0.0036128452560346682
303.8418    0.004015312473675836
304.0849    0.009425220654991998
304.171     0.00902275343735083
304.4159    0.002564558549620464
304.6084    0.002115292818300091
305.7288    0.0027891914152806505
306.0926    0.008966595220935783
308.1259    0.02980129351091809
309.1339    0.0625883321945695
310.142     0.04695762862571484
311.1436    0.023661328516206327
319.2266    0.12278058048876367
320.2316    0.02835989928959856
320.5797    0.0010014881927349986
321.234     0.007010417349144991
321.4633    0.0017877032225456521
322.581     0.0008891717599049054
325.2202    0.011437556743197836
326.1403    0.009397141546784475
328.1499    0.01831693825404105
333.1705    0.018092305388380865
337.2361    0.08970339102030118


