PRECURSORMZ: 505.0987647639998
COMPOUNDNAME: challenge-118
FORMULA: C23H22O13
SMILES: c1(cc(c2c(c1)oc(c(c2=O)OC)c1cc(c(cc1)O)OC)O)OC1OC(C(C(C1O)O)O)C(=O)O
INCHIKEY: IHGAMZBDEOTTEW-UHFFFAOYSA-N
PRECURSORTYPE: [M-H]-
IONMODE: negative
CHARGE: -1
PARENTMASS: 506.1060407639998
NUM PEAKS: 11
85.0307     0.011449330081533107
113.0236    0.044123799708154325
175.0195    0.04318499545904466
257.0481    0.012663652968968436
271.0258    0.044991173199179564
329.0708    0.7181240242048225
330.0724    0.1416369888874149
331.5613    0.0057654826168148
332.0533    0.005530781554537383
371.0883    0.007887996571323611
505.0985    1.0


