PRECURSORMZ: 309.16964986799996
COMPOUNDNAME: challenge-205
FORMULA: C17H24O5
SMILES: [C@H]12[C@H]([C@@H](C(=C(C1)C)[C@H](CCCOC(=O)C)C)O)C(=C)C(=O)O2
INCHIKEY: QKUFZFLZBUSEHN-UHFFFAOYSA-N
PRECURSORTYPE: [M+H]+
IONMODE: positive
CHARGE: 1
PARENTMASS: 308.162373868
NUM PEAKS: 98
69.0608     0.004707327056897258
69.0767     0.004886410151453131
85.0456     0.00315527357074635
91.052      0.029071155682903534
95.0884     0.008118433619866285
105.069     0.07495053895483694
107.0807    0.013098649201801064
117.0632    0.046211966161822896
119.0841    0.049461045163050894
120.0871    0.0066516577977896035
121.0655    0.04055805703370174
128.0588    0.17609837631327604
129.0692    0.22026367853731751
130.0745    0.029250238777459407
131.0772    0.0855846636648929
132.072     0.011879178605539638
132.0944    0.011376040387501707
133.0911    0.02725474143812253
142.0767    0.09433415199890845
143.0852    0.5698765179424206
143.7483    0.004477077363896848
144.0732    0.0936775139855369
144.0907    0.09357518078864784
145.1005    0.05415131668713331
146.09      0.00846807204257061
147.0805    0.16774969300040932
148.0798    0.016415950334288443
155.0863    0.05906331013780871
156.0266    0.041001500886887705
156.0923    0.040856528857961524
157.0968    0.24120787283394735
158.0624    0.03556931368535953
158.1039    0.03565459134943376
159.1136    0.062133306044480835
160.1194    0.007436212307272479
161.0905    0.08161072451903398
162.0826    0.008979738027015963
163.0758    0.013832037112839405
165.071     0.05292331832446446
170.1097    0.05168679219538819
171.1107    0.031203097284759174
175.0774    0.22439111747851004
176.0796    0.029309933142311367
180.0953    0.031655068904352573
183.1167    0.022675330877336607
185.1321    1.0
185.3282    0.002532746623004503
185.6065    0.00468174375767499
185.6541    0.005108132078046118
185.8502    0.007333879110383409
186.1387    0.18350047755491883
186.2532    0.00587563105471415
186.3285    0.0054151316687133305
186.5418    0.006191158411788784
186.7214    0.005210465274935189
186.8304    0.007086573884568154
187.1454    0.03925330877336608
189.0923    0.13802189930413428
190.0891    0.01895722472370037
195.1182    0.2031484513576204
196.1205    0.036515895756583434
198.1067    0.01334595442761632
202.5593    0.0005116659844453541
203.143     0.18419122663392007
204.1471    0.0312883749488334
213.1285    0.15784895620139175
213.7587    0.0015264701869286395
214.1309    0.02716093600764088
214.4417    0.0016288033838177105
215.134     0.00590974212034384
221.1462    0.005858575521899305
231.1395    0.14063139582480558
231.9625    0.003095579205894392
232.1432    0.027715240824123348
245.1548    0.04899201801064265
246.1575    0.009516987310683586
248.1536    0.007180379315049803
249.1503    0.049998294446718515
250.1523    0.009116182289534727
263.1657    0.0032831900668576887
267.1585    0.006549324600900532
273.1506    0.05225815254468549
274.1101    0.012655205348615091
274.1552    0.01036123618501842
274.4677    0.0009124710055942147
275.0676    0.008493655341792878
275.1558    0.007956406058125256
285.062     0.01903397462136717
287.6089    0.0018334697775958522
288.0951    0.0045026606631191155
291.1609    0.03401726019920862
292.1479    0.006694296629826716
292.1657    0.006532269068085687
292.7428    0.0010148042024832856
293.1688    0.006353185973529813
295.0162    0.0018675808432255423
303.065     0.019042502387774597
309.1697    0.112225405921681


