PRECURSORMZ: 427.1387436639999
COMPOUNDNAME: challenge-198
FORMULA: C23H22O8
SMILES: c1c2c(c3c(c1)C(=O)[C@@]1([C@H](O3)COc3c1cc(c(c3)OC)OC)O)C[C@@H](O2)C(=C)CO
INCHIKEY: MYQAATJJIDGOMQ-UHFFFAOYSA-N
PRECURSORTYPE: [M+H]+
IONMODE: positive
CHARGE: 1
PARENTMASS: 426.1314676639999
NUM PEAKS: 106
163.0143    0.0020191505772136973
207.0661    0.017658161569670098
208.0737    0.035799163494760866
209.0774    0.005146116688509444
215.073     0.0020818571168787193
219.0685    0.0025375246384445435
240.5219    0.00017766852905089472
243.0661    0.0022908789157621246
255.0933    0.002867779080680324
257.0826    0.0075624086836016124
261.0218    0.00046820882949882836
267.0681    0.0018038581243637899
268.0746    0.001509137387938188
272.9995    0.0018540233560958071
277.0827    0.0016136482873798908
280.0681    0.0021654658364320812
295.081     0.0026942909876070975
297.0766    0.004598479575434922
305.1008    0.0029263051843676775
306.0903    0.001964804909504012
312.097     0.012587292728758684
316.0613    0.0016805352630225806
318.0343    0.0012959351530771144
319.1013    0.007505972797903094
320.107     0.00604072998773042
321.1123    0.009238763510646526
323.0951    0.009961978934783108
332.1038    0.007305311870975024
334.0883    0.006661524730414135
338.1218    0.002598140960120731
345.0796    0.00429330774906515
347.0922    0.01376617567446109
349.1073    0.039070354647286164
350.1151    0.012756600385854239
351.1067    0.009675619070312842
352.102     0.002006609269280693
353.1391    0.06871382616493074
363.1196    0.07529592261176918
364.1253    0.01944738816811205
365.121     0.010269240979141715
366.1231    0.004966357941469716
367.1274    0.002715193167495438
377.1033    0.038167380476109854
378.1094    0.04367092444070993
379.11      0.026108912898526185
380.1211    0.007593761953434123
380.483     0.0011726122917359051
380.7227    0.001433889540340162
380.9746    0.0019543538195598417
381.1331    1.0
381.4257    0.0037331293280576227
381.7622    0.004903651401804694
381.9295    0.006182864810971136
382.138     0.23052805177051913
382.4742    0.009393439641820244
382.8818    0.009874189779252078
383.1458    0.06959589815621871
383.3025    0.00997870067869378
383.7725    0.004886929657894022
384.1517    0.016021520884413033
384.3521    0.002704742077551268
384.73      0.001929271203693833
385.4164    0.0012687623192222718
385.7297    0.0013335590768761272
391.1183    0.005357228705381684
392.1204    0.002073496244923383
393.1094    0.002704742077551268
394.1055    0.017355079961289162
404.0364    0.004101007694092417
405.0609    0.0014965960800051837
407.1106    0.002573058344254722
408.1192    0.007192440099577985
408.3498    0.0004932914453648371
408.6495    0.0012311383954232587
408.6698    0.0013084764610101188
408.9465    0.0013711830006751403
409.1275    0.675869896471503
409.5409    0.004023669628505556
409.5737    0.004013218538561386
409.8115    0.0024371941749805085
409.9091    0.002353585455427146
410.1333    0.20587602081021028
410.3413    0.006851734567398034
410.4053    0.004176255541690443
410.5095    0.004069654424259906
410.8357    0.00915933522707083
410.8902    0.009111260213327647
411.1378    0.0746834887410408
411.3101    0.0044584349701830405
411.4598    0.0022114506321864306
411.7401    0.002288788697773291
411.7671    0.0023452245834718103
412.1416    0.014687961807536908
412.3064    0.0017892265984419513
412.5222    0.001507047169949354
412.7232    0.001776685290508947
412.9132    0.00158229501754738
413.1424    0.00422642077342246
413.4498    0.001425528668384826
413.7566    0.0012917547170994462
413.9351    0.0009071546071539801
414.1689    0.0014903254260386816
414.547     0.0007566589119579281
414.7272    0.000714854552181247
415.0566    0.0010848231362048748
427.1386    0.0085866154981303


