PRECURSORMZ: 271.096484928
COMPOUNDNAME: challenge-008
FORMULA: C16H14O4
SMILES: COc1cc(ccc1/C=C/C(=O)c1ccc(cc1)O)O	
INCHIKEY: QJKMIJNRNRLQSS-WEVVVXLNSA-N
PRECURSORTYPE: [M+H]+
IONMODE: positive
CHARGE: 1
PARENTMASS: 270.089208928
NUM PEAKS: 24
65.0403     0.07
77.0383     0.022000000000000002
93.0364     0.109
103.04      0.016
107.0514    0.151
111.0458    0.037000000000000005
121.0281    0.6809999999999999
123.0428    0.14300000000000002
134.0382    0.182
147.0425    0.025
151.0528    0.027000000000000003
153.0716    0.011000000000000001
162.0325    0.057999999999999996
165.0644    0.021
169.0665    0.01
177.057     0.218
181.0673    0.019
183.0846    0.012
211.0746    0.017
225.0931    0.011000000000000001
229.0872    0.561
239.0692    0.017
253.0875    0.011000000000000001
271.0953    1.0


