PRECURSORMZ: 497.3009983799999
COMPOUNDNAME: challenge-213
FORMULA: C29H40N2O5
SMILES: c1(c(cc2c(c1)CC[N+]1(C2CC(C(C1)CC)CC1c2c(CCN1)cc(c(c2)OC)OC)[O-])OC)OC
INCHIKEY: SSQAXSNCMRBPGJ-UHFFFAOYSA-N
PRECURSORTYPE: [M+H]+
IONMODE: positive
CHARGE: 1
PARENTMASS: 496.2937223799999
NUM PEAKS: 160
56.0471     0.0030748653383442246
93.0685     0.009042866385106893
107.0478    0.02173486373912348
110.0933    0.030094426715709433
120.0688    0.007007494529938139
121.0648    0.042902731032878526
130.0742    0.011717926537614397
146.0647    0.034412322722746004
147.0795    0.10755486417527459
149.0604    0.037857916506138824
150.0668    0.04344791992265587
153.0871    0.011056430684684553
161.0813    0.056350723647386365
162.0896    0.02209105381377801
163.0758    0.05604541786911105
164.0806    0.02209105381377801
165.0904    0.06313287343621653
166.0636    0.04300449962563696
171.0815    0.04897250067239963
175.0759    0.17362448843109174
176.0805    0.2439465860271722
177.0889    0.10635544861776443
178.0977    0.022040169517398792
181.0869    0.2548503638227191
182.0895    0.011565273648476742
186.1077    0.011616157944855961
189.0834    0.0983738832714241
190.0961    0.8211344290418486
190.7674    0.005822617342822042
191.0989    0.31080855146946573
191.8687    0.005699041194472512
192.1016    0.14579804749685607
192.6514    0.004172512303095946
193.1035    0.012110462538254086
194.6149    0.03151191782913053
195.6173    0.017693196769574097
201.0924    0.04637740155705947
201.6132    0.0038744757100176636
202.1005    0.04700255148400416
202.6204    0.0040780128955345395
203.1019    0.06579339521832997
205.1093    0.541750565179149
205.8465    0.004492356451765321
206.1089    0.09535717141465612
208.612     0.03897010184128461
209.6201    0.05653245327731215
210.1129    0.01453837039406253
210.6238    0.011419889944536117
213.1265    0.01207411661226893
215.1072    0.06890460648265935
216.1114    0.02323958507490895
216.627     0.026939600340197867
217.1217    0.06848299374123154
217.6141    0.012037770686283773
218.1211    0.028437052490786305
218.6191    0.004114358821519695
223.6146    0.007240108456243139
224.1218    0.07596298530897672
224.625     0.21298712627301605
225.1277    0.06284937521353232
225.2654    0.004724970378070322
225.6324    0.021705786998335357
226.1222    0.005379197045803135
226.6206    0.004274280895854383
226.6433    0.004964853489572353
230.1215    0.08185829450376907
231.6331    0.05245444038177761
232.1363    0.0814439509475383
232.637     0.022040169517398792
232.863     0.003365632746225475
233.1252    0.29517980329584853
233.3496    0.003053057782753131
233.6293    0.11680126774589836
233.8135    0.006912995122376732
234.1367    0.01782404210312066
234.3273    0.005895309194792355
234.6352    0.009275480311411894
234.7745    0.004608663414917821
234.837     0.0051247755639070415
235.4133    0.003212979857087819
235.9447    0.0021371404479271915
236.5336    0.002064448595956879
240.149     0.01046035749852799
240.4788    0.0018899881512281288
240.6366    0.2797327847521571
240.9032    0.0022025631147004733
241.1407    0.10302616179752411
241.308     0.00385266815442657
241.6428    0.028771435009849744
241.8549    0.00522654415666548
241.9682    0.004841277341222821
242.1231    0.03137380331038694
242.149     0.03086496034659475
242.4481    0.0033801711166195378
242.6355    0.003023981041965006
243.1085    0.027230367748079118
243.1347    0.028218976934875368
243.3219    0.002551484004157974
244.1427    0.17126927242725362
244.4274    0.0011194545203428148
245.1466    0.04229211947632789
246.1513    0.26804393495533085
247.1777    0.047460510151417126
248.6906    0.002864058967630318
249.151     0.0521055194923201
249.4781    0.0013011841502685963
249.6543    0.02145863470163629
249.9615    0.0024860613373846926
250.1585    0.0011558004463279711
250.3508    0.0013811451874359403
250.6635    0.0017736811880756285
251.4656    0.0008650330384467205
251.8477    0.00120668474270719
252.3299    0.000603342371353595
252.5474    0.000603342371353595
258.1501    0.07700247879215218
259.1716    0.1475935362405228
260.1742    0.054635195940886984
261.1738    0.008577638532496892
262.1454    0.015657824914405344
272.1678    0.2675641687323268
273.1704    0.058189827502235274
274.1823    0.657774030108965
275.187     0.13542492022069247
275.447     0.0048994308227990726
275.6384    0.003845398969229539
276.1886    0.019590454105999258
284.1677    0.03069776908706303
285.176     0.03216614449686334
286.182     0.05348666467975604
287.186     0.01236488402015018
288.1983    0.045483291777824626
289.2002    0.0097189006084308
290.1772    0.03226064390442475
298.1807    0.03157734049590381
300.1984    0.07169597359831936
301.2034    0.017220699731767066
302.2094    0.015730516766375657
317.2253    0.0067167271220568885
333.2187    0.02643075737640568
334.2157    0.008141487420675017
406.2284    0.005088429637921885
420.2236    0.005459158082970479
422.2318    0.009137365792668299
435.2364    0.005779002231639855
436.245     0.010075090683085331
438.2332    0.014458409356895185
448.2504    0.006927533492770795
450.2653    0.1879157065284552
451.2678    0.06050869758008824
466.2651    0.009617132015672363
468.2749    0.3580800628057601
469.2789    0.11334113559211148
470.2819    0.02267258862954051
477.2777    0.05128410156505557
479.2922    0.1798687185153416
480.2933    0.0631474118066106
481.3034    0.030792268494624436
482.2946    0.008206910087448298
497.3017    1.0


