PRECURSORMZ: 295.117614296
COMPOUNDNAME: challenge-229
FORMULA: C15H18O6
SMILES: C(C(C(C)(C)O)O)(O)c1c(cc2c(c1)ccc(=O)o2)OC
INCHIKEY: PCSZTTAMZGNQNB-UHFFFAOYSA-N
PRECURSORTYPE: [M+H]+
IONMODE: positive
CHARGE: 1
PARENTMASS: 294.110338296
NUM PEAKS: 14
146.0385    0.00423257560194663
162.0231    0.0022916120623091797
175.0396    0.016406100575913633
189.0563    0.011553691726820007
205.0444    0.06152996096821495
206.0573    0.08056769641630125
216.0452    0.000889017971622263
219.0661    0.09878016816961471
220.0683    0.012881905827849283
260.9781    0.002380159669044465
277.1012    0.005826432523181763
288.9828    0.0018984606884045138
289.9829    0.003081456714387923
295.1177    1.0


