PRECURSORMZ: 164.070604528
COMPOUNDNAME: challenge-191
FORMULA: C9H9NO2
SMILES: c1cccc(c1)C1OC(=O)NC1
INCHIKEY: ARILQDNHZGKJBK-UHFFFAOYSA-N
PRECURSORTYPE: [M+H]+
IONMODE: positive
CHARGE: 1
PARENTMASS: 163.063328528
NUM PEAKS: 21
77.032      0.04758928378990021
91.0539     0.07006918550768369
93.0681     0.0459081406125396
103.0538    0.3152790051080889
104.0589    0.02926913378020131
119.0711    0.05330085996939458
120.0797    1.0
120.5378    0.006810785180076298
120.7538    0.008384162769144558
120.8413    0.01041015582904067
121.0841    0.10793801323361425
121.2273    0.005668469944177425
121.4504    0.006401275944565381
126.0738    0.013966420242688104
128.0494    0.5562213074121172
129.0502    0.07177188180270276
146.0602    0.42604047675496265
146.4959    0.006379722826906913
147.0631    0.061663469620880665
147.9997    0.059227967325473634
164.0704    0.1665840463823092


