PRECURSORMZ: 269.04554742
COMPOUNDNAME: challenge-014
FORMULA: C15H10O5
SMILES: c1cc(c(cc1/C=C\1/C(=O)c2ccc(cc2O1)O)O)O	
INCHIKEY: RGNXWPVNPFAADO-NSIKDUERSA-N
PRECURSORTYPE: [M-H]-
IONMODE: negative
CHARGE: -1
PARENTMASS: 270.05282342
NUM PEAKS: 48
77.0368     0.0112
89.0386     0.01243076923076923
91.017      0.10301538461538462
104.0267    0.011015384615384614
105.0343    0.01556923076923077
115.0247    0.010584615384615385
132.0207    0.08683076923076923
133.0286    1.0
135.0083    0.16793846153846154
141.0715    0.01556923076923077
143.0473    0.01243076923076923
155.0467    0.011815384615384615
160.019     0.011815384615384615
161.0222    0.031876923076923074
167.0484    0.029784615384615385
169.0668    0.06061538461538461
171.0442    0.034030769230769226
173.0598    0.018215384615384616
179.0499    0.019323076923076922
180.0586    0.018092307692307692
181.0655    0.008738461538461539
182.0359    0.026707692307692307
183.0442    0.025292307692307694
184.0518    0.013723076923076923
185.0598    0.06024615384615385
195.0451    0.11076923076923077
196.0532    0.07021538461538461
197.0609    0.10110769230769232
198.0325    0.026215384615384616
199.0377    0.06966153846153847
201.0564    0.09532307692307693
208.0514    0.02695384615384615
211.0385    0.0704
212.0453    0.027323076923076922
213.0546    0.23716923076923074
223.0404    0.07107692307692308
224.0482    0.1483076923076923
225.056     0.09218461538461539
226.028     0.04301538461538462
227.0336    0.0940923076923077
239.0334    0.024923076923076923
240.0405    0.06418461538461538
241.0497    0.15864615384615385
251.0356    0.02806153846153846
252.0433    0.039384615384615386
267.0262    0.019076923076923078
268.033     0.030523076923076924
269.0451    0.5348307692307692


