PRECURSORMZ: 379.1751291719999
COMPOUNDNAME: challenge-201
FORMULA: C20H26O7
SMILES: C1CC2(C3(C(C1O)C1(C(CC3OC2)C)CC(OC1=O)c1cocc1)CO)O
INCHIKEY: DHPGIJYSTONUPM-UHFFFAOYSA-N
PRECURSORTYPE: [M+H]+
IONMODE: positive
CHARGE: 1
PARENTMASS: 378.1678531719999
NUM PEAKS: 76
81.0162     0.02692466035405517
95.0444     0.05080279950596954
105.0668    0.058954302181967885
142.0619    0.099752984767394
157.101     0.3132564841498559
161.0587    0.06862906545903663
169.0985    0.1547550432276657
171.1192    0.08542610127624536
173.1067    0.07780979827089338
181.0978    0.1872375463153561
183.114     0.19641827912721285
185.0956    0.13672293124742693
195.1132    0.09822972416632358
199.1101    0.0961300946891725
201.0958    0.06780568135034994
203.0948    0.07064635652531906
207.1104    0.08666117743927543
209.0966    0.08382050226430629
219.103     0.07340469328941952
221.127     0.24685055578427337
223.1119    0.11321531494442157
225.1273    0.15726636475916014
228.5596    0.003911074516261836
229.5777    0.004405104981473857
231.111     0.2559901193906957
233.1312    0.08999588307945657
237.5604    0.002428983120625772
238.5643    0.002428983120625772
239.144     0.5049814738575545
241.1415    0.03478797859201317
245.11      0.025566076574722107
249.1283    0.669534787978592
250.1285    0.12997118155619597
251.1468    0.27962124331000415
252.1433    0.05656648826677645
253.0872    0.11984355701934954
254.0793    0.029682997118155616
255.1132    0.0338822560724578
257.1412    0.054466858789625365
267.1385    0.7664882667764512
268.1395    0.15351996706463564
269.1515    0.2145327295183203
270.1535    0.03297653355290243
271.0977    0.08209139563606423
277.1182    0.11959654178674352
278.1084    0.03252367229312474
279.14      0.3370522848909016
280.1334    0.07501029230135858
281.1664    0.030300535199670645
283.1338    0.05986002470152326
285.149     0.553808151502676
286.1534    0.11844380403458213
295.1342    0.2522025524907369
296.1357    0.06875257307533965
297.1494    0.6311239193083573
298.1517    0.1581720872787155
303.1591    0.044133388225607244
304.1627    0.009880609304240428
307.1288    0.07818032111980239
313.1447    0.6976945244956773
314.1477    0.13557019349526556
315.1565    0.18694936187731578
316.158     0.030588719637710992
325.1412    0.3596130094689173
326.145     0.08151502675998354
331.1542    0.47863318237958
332.1592    0.10815150267599835
333.1607    0.02902428983120626
343.1549    0.2852202552490737
344.1582    0.0745574310415809
361.164     1.0
362.1699    0.223466447097571
362.429     0.0073281185673116514
363.1724    0.0531082750102923
363.418     0.0053931659118979
379.1743    0.8256072457801564


