PRECURSORMZ: 245.117220372
COMPOUNDNAME: challenge-136
FORMULA: C15H16O3
SMILES: c1c(cc(cc1O)CCc1cccc(c1)O)OC
INCHIKEY: VYQXIUVIYICVCM-UHFFFAOYSA-N
PRECURSORTYPE: [M+H]+
IONMODE: positive
CHARGE: 1
PARENTMASS: 244.109944372
NUM PEAKS: 14
91.0529     0.033341870022805156
107.0511    0.05013475774094807
121.0648    0.25300308540348054
137.06      0.22485640068781326
138.0632    0.03715898974377736
151.0758    0.2829424749082306
152.0738    0.03801265869095965
170.0253    0.0029024744204197614
170.5296    0.0010122074659447069
213.0906    0.05934218709984269
226.0943    0.01582946133489433
227.0947    0.026378370467932538
241.0877    0.07586677886315688
245.1171    1.0


