PRECURSORMZ: 251.164170564
COMPOUNDNAME: challenge-172
FORMULA: C15H22O3
SMILES: C12=CCC(C1CC1(C(=O)CC2(C1(CO)C)C)O)C
INCHIKEY: LUADJIBUFOIMNV-UHFFFAOYSA-N
PRECURSORTYPE: [M+H]+
IONMODE: positive
CHARGE: 1
PARENTMASS: 250.156894564
NUM PEAKS: 78
79.0509     0.010315873650539785
81.0665     0.01909236305477809
95.0546     0.032896841263494604
95.0816     0.035085965613754495
97.0668     0.010045981607357058
105.0699    0.058566573370651735
107.0831    0.05756697321071571
109.0949    0.04307277089164334
111.0804    0.013204718112754898
119.0843    0.061675329868052776
121.1009    0.029858056777289085
125.0845    0.009176329468212714
131.0845    0.08008796481407437
133.1001    0.05385845661735306
135.0855    0.017023190723710516
139.0773    0.02075169932027189
145.1014    0.19520191923230706
146.1029    0.0280687724910036
147.1117    0.05197920831667333
149.0843    0.025219912035185928
153.084     0.028798480607756898
156.0888    0.01903238704518193
157.0977    0.054828068772491
158.5518    0.0016693322670931626
159.1156    0.1693722510995602
160.1133    0.026609356257497
161.0897    0.03173730507796881
161.1163    0.03161735305877649
163.092     0.019802079168332667
164.5501    0.0009496201519392243
165.5683    0.0016693322670931626
167.0799    0.015323870451819273
171.1175    0.028078768492602955
173.1294    0.08636545381847262
173.5562    0.0013094762095161934
174.1223    0.015823670531787286
174.5622    0.0027588964414234306
175.1065    0.023530587764894043
175.5487    0.0015493802479008398
176.102     0.00859656137544982
177.078     0.08053778488604559
177.0919    0.08071771291483407
182.1069    0.023590563774490203
185.1309    0.0574970011995202
186.1222    0.013594562175129948
187.149     0.1919032387045182
188.1506    0.029678128748500596
189.1465    0.020141943222710915
189.1684    0.01759296281487405
191.1137    0.08746501399440224
191.1392    0.08734506197520991
192.1314    0.014094362255097961
195.5977    0.0003598560575769692
197.1403    0.05280887644942023
203.1299    0.031967213114754096
204.141     0.00739704118352659
205.157     0.03640543782487005
215.1438    0.31723310675729705
216.148     0.06304478208716514
230.0238    0.0070171931227509
232.7634    0.002499000399840064
233.0473    0.007407037185125949
233.1529    1.0
233.2914    0.0027489004398240703
233.6796    0.005017992802878849
233.9531    0.00814674130347861
234.1592    0.21757297081167531
234.3187    0.005677728908436625
234.6564    0.006487405037984807
234.7962    0.005667732906837265
235.1611    0.03327668932427029
235.3038    0.005377848860455817
235.383     0.0053678528588564575
235.8306    0.00426829268292683
236.1612    0.005537784886045582
236.3397    0.0026889244302279085
245.5932    0.0016393442622950817
251.165     0.06663334666133547


