PRECURSORMZ: 351.2166000599999
COMPOUNDNAME: challenge-141
FORMULA: C20H30O5
SMILES: C1(=O)C=C(C2(C(C1)C(C(CC2)C)(CCC(C)CC(=O)O)C)C)C(=O)O
INCHIKEY: XKXZAYIPFRBKHT-UHFFFAOYSA-N
PRECURSORTYPE: [M+H]+
IONMODE: positive
CHARGE: 1
PARENTMASS: 350.2093240599999
NUM PEAKS: 160
55.0412     0.0027121405717429074
69.0763     0.0037183133897579265
77.0169     0.003808834127710835
81.0652     0.016526997810094455
93.0691     0.010232324955522983
95.0836     0.020471613044734653
97.0958     0.005062198191674181
105.0685    0.019322695986101583
107.0838    0.0190789863069976
108.0756    0.002673843336455138
109.0957    0.019075504740153258
110.1106    0.0022665000156670504
113.0793    0.003102076058309281
120.0765    0.0043519585554282845
121.066     0.12024983723675002
123.0808    0.03952622838382185
129.071     0.004181361780055496
135.081     0.02173890337607537
137.1002    0.008508949367573383
142.0773    0.0032204493310169307
147.0836    0.03331859470035895
148.0819    0.004905527683678763
149.1006    0.013776560003063779
151.1069    0.009650903292517764
156.1173    0.004170917079522468
161.0883    0.08056693834493275
162.0955    0.0097518687310037
163.1118    0.02718755548747158
163.1582    0.004700115239862548
165.0622    0.012276004693152107
169.0987    0.012488380270657006
171.1164    0.03295999331539166
173.1012    0.02881344720377959
174.1009    0.004741894041994659
175.1133    0.05228268930149325
175.1702    0.004526036897645416
176.1048    0.006493122164699001
187.1545    0.00783004383292657
189.1168    0.06606969400509005
190.1235    0.010120914816504019
191.0974    0.015649642965320114
197.1281    0.007436626779515853
199.1194    0.02042983424260254
200.5788    0.0008495023100196012
201.1376    0.018316523168086567
201.5781    0.0007067580694015534
202.151     0.003909799566196771
203.0514    0.01612661762299505
203.1338    0.016206693660414932
204.0762    0.0017512281227043418
205.0885    0.011071382565009556
207.067     0.016067430986641228
209.1144    0.013853154473639315
211.1561    0.015600901029499317
212.1622    0.0026808064701438236
213.1269    0.0216518642049668
214.1453    0.0036834977213145003
214.5749    0.00041778802132111533
215.1341    0.008898884854139756
215.5887    0.000626682031981673
217.1214    0.031985154598975725
217.1964    0.004264919384319719
219.1228    0.007133730464058045
221.1014    0.009125186699022028
223.5827    0.00041778802132111533
224.5893    0.00054312442771745
225.1378    0.019629073868403735
225.1641    0.019615147601026364
225.5731    0.000626682031981673
227.1759    0.07921957197617216
228.1901    0.017919624547831508
229.1916    0.01825733653173274
230.1733    0.002478875593171951
231.1374    0.011377760447311707
233.1002    0.005079606025895894
235.137     0.021961723654113294
236.1192    0.004177880213211154
237.1353    0.006420009260967806
241.1917    0.05815261100105491
242.199     0.01154139408899581
243.1762    0.015531269692612464
244.1028    0.0022038318124688832
245.1373    0.03300177211752377
245.1884    0.03279287810686321
246.1751    0.005573988517792547
247.1683    0.003022000020889401
248.2369    0.014169977056474495
249.23      0.005824661330585216
251.1794    0.03339518917093449
252.1739    0.006580161335807567
253.1846    0.014298795029715173
254.1789    0.0030254815877337436
255.1721    0.015353709783550988
257.1498    0.004978640587409958
259.2022    0.047596500329008064
260.207     0.009546456287187486
261.1802    0.0031368917267527077
263.1315    0.017999700585251386
264.1213    0.004167435512678125
269.1904    0.18452652431700364
270.1944    0.04477643118509053
271.2034    0.02575314994760242
272.1959    0.0053546498065989625
273.1857    0.13257806543256728
274.1864    0.030084219101964647
275.1707    0.007415737378449797
279.1667    0.0381823435819056
280.161     0.007708188993374578
287.2008    0.3405633871467515
288.2068    0.08443844067584176
288.4162    0.0025659147642805168
288.6694    0.002402281122596413
289.2134    0.02737556009706608
290.2116    0.005271092202334739
291.1914    0.015238818077687682
292.1834    0.0034780852774982853
297.1857    0.15762445731076813
298.1897    0.04119389890226197
298.6195    0.0015980391815532662
299.1915    0.007955380239322905
305.2119    0.0552768367876279
306.2163    0.01352588719027111
307.2161    0.005549617549882149
308.2134    0.001148917058633067
315.1944    0.3655923711907306
315.9416    0.002430133657351154
316.2001    0.10110470115970992
316.5682    0.002701695871209879
316.6713    0.0026076935664126285
316.8302    0.00225257374828968
317.1977    0.017752509339303058
317.3493    0.0019218248980771306
317.539     0.0016711520852844613
317.9526    0.0022421290477566526
318.6646    0.0016328548499966924
323.1983    0.004000320304149679
332.7706    0.0016293732831523498
332.9736    0.0018278225932798796
333.2061    0.7324102539106699
333.4222    0.0026320645343230263
333.4788    0.0025972488658796
333.7262    0.0030637788230215126
333.9712    0.006858686683354977
334.212     0.21852750611885371
334.4005    0.007147656731435415
334.4767    0.00927489407332876
334.6266    0.00714069359774673
334.9099    0.0037983894271778067
335.2135    0.052749219258635155
335.4075    0.0030080737535120305
335.4354    0.0029906659192903175
335.7585    0.002736511539653305
335.8828    0.002569396331124859
336.216     0.009755350297848043
336.3948    0.0012498824971190034
336.5626    0.002551988496903146
336.741     0.0019705668338979273
337.5346    0.0010862488554349
342.1311    0.002691251170676851
351.2172    1.0


