PRECURSORMZ: 361.1281789799999
COMPOUNDNAME: challenge-033
FORMULA: C19H20O7
SMILES: C[C@]12C3[C@@H](C[C@@H]4[C@@H](CC(=O)c5ccoc45)[C@]43C[C@@H]([C@]2(O)OC4)O)OC1=O	
INCHIKEY: OXFCHVUTODNYNS-MMARFKMCNA-N
PRECURSORTYPE: [M+H]+
IONMODE: positive
CHARGE: 1
PARENTMASS: 360.1209029799999
NUM PEAKS: 34
81.0329     0.012
119.085     0.016
123.0438    0.016
135.0433    0.039
135.0809    0.018000000000000002
145.0641    0.042
147.0431    0.081
169.0632    0.022000000000000002
211.1012    0.027000000000000003
223.1136    0.018000000000000002
225.1041    0.031
227.1084    0.037000000000000005
235.1069    0.033
237.0953    0.024
239.1044    0.067
241.1227    0.057
251.1053    0.08800000000000001
253.1218    0.14400000000000002
255.103     0.025
261.0891    0.049
263.109     0.025
267.1015    0.331
269.1169    0.11699999999999999
271.1305    0.013999999999999999
279.1012    0.456
281.1181    0.09699999999999999
285.1125    0.038
287.1277    0.022000000000000002
297.112     0.509
299.1286    0.019
315.1211    0.033
325.1094    0.067
343.1193    0.247
361.1292    1.0


