PRECURSORMZ: 405.1191062839999
COMPOUNDNAME: challenge-128
FORMULA: C20H22O9
SMILES: c1(cc(c2c(c1)OC(C(C2)O)c1ccc(cc1)O)O)OC1OC(C(C1O)O)CO
INCHIKEY: XWFQRXGYJJOFCO-UHFFFAOYSA-N
PRECURSORTYPE: [M-H]-
IONMODE: negative
CHARGE: -1
PARENTMASS: 406.1263822839999
NUM PEAKS: 70
81.0272     0.003241256184409031
83.0124     0.0030106790168189577
93.0273     0.006403457339930037
95.0504     0.0028723327162649137
97.0299     0.02279419999604725
105.0298    0.0032346682653350287
123.0445    0.008057025027504562
125.0247    0.02945458617986337
126.03      0.0034586575138511
133.0253    0.008590646472498733
135.0463    0.008063612946578565
137.0213    0.06429809016226044
138.0267    0.012332584506531921
139.04      0.016430270170561225
161.0615    0.0047169500569855
163.9965    0.005052933929759607
166.0252    0.011719908032649728
167.028     0.007345529767512337
171.0247    0.006192643929561969
172.0502    0.003392778323111079
179.0359    0.008472063929166693
186.0647    0.014335311905028559
187.0771    0.05583261415216776
188.0832    0.009453663871193006
189.0562    0.049257870916313666
190.0579    0.008366657223982662
201.0853    0.0030897340457069827
205.0874    0.036859407219041726
206.0917    0.006396869420856034
211.0698    0.003998866877919272
214.0605    0.005606319131975783
215.0361    0.005270335259201676
229.087     0.0936933850704578
230.0888    0.01867675057479594
231.0689    0.022800787915121253
232.0671    0.003919811849031247
255.0674    0.035014789878321136
256.07      0.007411408958252357
257.072     0.002898684392560922
269.0675    0.006363929825486023
270.0703    0.0014888697107244737
273.0769    1.0
273.3506    0.00493435138642757
273.496     0.0042492078027313515
273.525     0.004255795721805353
273.7681    0.006871199594184185
273.8511    0.006627446588446107
274.0834    0.21290836863359971
274.2552    0.009677653119709079
274.2858    0.009624949767117062
274.4278    0.008182195489910603
274.5396    0.008649937744164752
274.6442    0.007918678726950519
274.7562    0.008142667975466589
274.9442    0.006186056010487968
275.0858    0.03776195213218001
275.2185    0.0065154519641880725
275.4665    0.004677422542541488
275.5329    0.004848708438465542
275.6553    0.004519312484765437
275.8352    0.004776241328651519
275.8646    0.004763065490503515
276.0844    0.006838259998814175
276.2376    0.0030106790168189577
276.32      0.003254432022557035
276.4116    0.0032873716179270453
276.7338    0.0030765582075589788
287.054     0.0026219917914528336
322.9949    0.003636531328849157
405.1193    0.08131468513040786


