PRECURSORMZ: 757.2549551880002
COMPOUNDNAME: challenge-180
FORMULA: C34H44O19
SMILES: C1C(C(C(C(O1)OC1C(C(C(OC1OC1C(C(OC(C1O)OCCc1ccc(c(c1)O)O)CO)OC(=O)/C=C/c1cc(c(cc1)O)O)C)O)O)O)O)O
INCHIKEY: UDHCHDJLZGYDDM-QPJJXVBHSA-N
PRECURSORTYPE: [M+H]+
IONMODE: positive
CHARGE: 1
PARENTMASS: 756.2476791880001
NUM PEAKS: 42
85.0124     0.013755676572010026
89.0379     0.02572123085040231
117.0289    0.06084531459043886
135.0368    0.07458214776988449
145.0266    0.12860615425201155
163.0386    1.0
164.0327    0.11903371082929773
181.0462    0.01839115114285176
291.0896    0.010703046976577663
307.0804    0.024647157474231664
309.099     0.03359776894232038
310.0928    0.0071416457819065745
323.0777    0.005653017769319189
325.0919    0.4498294672972922
326.0965    0.07761593397275246
370.0242    0.018014283291563814
371.0161    0.01066536019144887
378.0063    0.018146187039514594
379.0062    0.019766718800052763
435.124     0.013115001224820516
453.1196    0.004465884037762159
461.1468    0.010250805555032128
471.1484    0.06630989843411408
472.156     0.017882379543613033
473.1585    0.0034106540541559106
477.1406    0.013944110497653999
478.1349    0.010024684844259361
479.155     0.05345870470519513
480.1577    0.011287192146073979
530.0618    0.013133844617384916
532.0666    0.06770430948387948
533.0774    0.04906819423769055
534.0726    0.012926567299176543
535.071     0.013755676572010026
625.2149    0.02607925530912586
626.211     0.00668940436036104
664.1138    0.047824530328440334
665.1181    0.037121483351862675
666.1258    0.010476926265804896
667.1183    0.011362565716331569
669.1135    0.0057283913395767775
757.2593    0.0024496410333716486


