PRECURSORMZ: 489.24939217599984
COMPOUNDNAME: challenge-107
FORMULA: C27H38O8
SMILES: C12(C(C=C(C1=O)C)C1(C(C=C(C2)CO)C2C(C(C1C)OC(=O)C)(C2(C)C)OC(=O)C(CC)C)O)O
INCHIKEY: LJNNQVFOVQWDMN-UHFFFAOYSA-N
PRECURSORTYPE: [M-H]-
IONMODE: negative
CHARGE: -1
PARENTMASS: 490.25666817599983
NUM PEAKS: 28
83.9973     0.035283993115318414
101.0588    0.24337349397590363
175.0832    0.030636833046471603
291.1376    0.15094664371772806
309.1484    0.2304647160068847
310.1548    0.05903614457831325
423.2169    0.10266781411359724
429.2228    0.10869191049913941
453.2274    0.08158347676419965
471.2412    0.13864027538726334
472.2429    0.04423407917383821
489.2495    1.0
489.5421    0.012134251290877796
490.0483    0.009122203098106713
490.2541    0.29345955249569705
490.5381    0.016092943201376934
490.7511    0.02117039586919105
490.9658    0.015146299483648883
491.2573    0.07142857142857142
491.4711    0.008089500860585198
491.7651    0.013166953528399312
492.2544    0.018158347676419967
523.2325    0.046299483648881236
524.2333    0.024182444061962134
525.229     0.14328743545611017
526.2285    0.03330464716006885
527.2278    0.056970740103270225
535.2559    0.7186746987951808


