PRECURSORMZ: 801.4994829840001
COMPOUNDNAME: challenge-137
FORMULA: C42H72O14
SMILES: O([C@H]1[C@@H]([C@H]([C@@H]([C@H](O1)CO)O)O)O)[C@@H]1[C@H]([C@@H]([C@H](O[C@H]1O[C@@H]1[C@H]2C([C@H](CC[C@@]2(C2[C@@](C1)([C@]1([C@H]([C@@H](C2)O)[C@H](CC1)[C@@](CCC=C(C)C)(C)O)C)C)C)O)(C)C)CO)O)O
INCHIKEY: UZIOUZHBUYLDHW-UHFFFAOYSA-N
PRECURSORTYPE: [M+H]+
IONMODE: positive
CHARGE: 1
PARENTMASS: 800.4922069840001
NUM PEAKS: 163
69.0706     0.004999526858656909
81.0677     0.013547613790493013
85.0166     0.013539728101441502
95.0809     0.026259344541526036
99.0809     0.0038087878118790016
105.068     0.022426899662492505
107.0828    0.02812036715768224
109.095     0.04394694508406144
110.1063    0.004329243289278617
119.0848    0.03550137210989496
121.0988    0.03361669242658424
123.1077    0.030336245781156356
127.0648    0.011347506545121913
133.0996    0.03434217581932309
135.1123    0.027552597545973563
145.0636    0.03222092546446709
147.1151    0.04615493801848405
149.13      0.024571807084503045
159.1181    0.03583257105005835
163.0736    0.0222534145033593
163.1392    0.02227707157051383
175.1479    0.028625051256978833
177.1661    0.012143961139324354
179.1362    0.011174021385988706
187.147     0.055562565056934674
188.1501    0.008074945588745545
189.1614    0.04639939437908084
190.1633    0.00939974134939911
191.1728    0.027213512916758668
193.1911    0.007168091347821972
199.1489    0.022008958142762516
201.165     0.04210169384600826
202.1691    0.006750149828091978
203.1796    0.09652871967952559
204.1799    0.01823959877614106
205.1598    0.017798000189256535
207.171     0.020108507081348766
215.1812    0.03837176292464436
216.1793    0.006300665552155947
217.1938    0.05333091505535753
218.1978    0.011505220326152098
219.1818    0.02382266662460966
221.1823    0.01460429612339526
225.1673    0.007680661136170079
231.1939    0.015597892943885437
233.1913    0.009770368734820048
241.1922    0.01832634135570766
243.2041    0.023404725104879665
244.2142    0.004486957070308803
245.1951    0.012845787464908684
253.1972    0.012356874743715104
257.2093    0.01567674983440053
259.2004    0.016528404251963537
261.2218    0.007996088698230451
267.2067    0.029153392423429958
268.2092    0.010014825095416837
269.2246    0.035020345077752896
275.9888    0.04695139261268649
276.9966    0.025242090653881336
277.0207    0.02503706273854209
281.23      0.018689083052077088
283.2299    0.025801974576538496
285.2247    0.017253887644702395
295.2284    0.014817209727786013
297.256     0.021874901428886852
298.262     0.005866952654322935
299.2178    0.015637321389142984
309.2529    0.013397785698514336
311.2661    0.020983818566066303
313.2634    0.015479607608112797
315.2736    0.004510614137463331
321.2623    0.007933003185818376
323.2729    0.019643251427309716
324.2836    0.005590953537520108
325.1149    0.038434848437056426
326.1067    0.005188783395893132
327.2743    0.007388890641264233
335.2718    0.015747721035864113
336.2886    0.005251868908305207
336.9963    0.0033987319812005174
337.2861    0.018279027221398604
339.2973    0.0067738068952465065
341.281     0.0121833895845819
349.2897    0.026535343658328863
350.2927    0.012483045768539255
351.2895    0.00894237138441157
365.3133    0.018271141532347095
366.3208    0.006805349651452543
367.2989    0.032276125287827646
368.3003    0.012262246475096994
378.0223    0.009265684635523451
379.2991    0.010338138346528719
396.0399    0.004045358483424281
397.0234    0.0034618174936125916
397.3053    0.011655048418130776
399.0458    0.004266157776866542
405.3514    0.4292022836955493
406.356     0.14588524745292242
407.3596    0.03237863924549727
408.3558    0.006079866258713686
409.6971    0.002972904772419014
410.1974    0.0020502791533924232
410.7147    0.001671766078919976
418.7117    0.0014825095416837522
423.3606    1.0
423.8049    0.00406901555057881
424.144     0.006221808661640855
424.3667    0.35252184335867265
424.5179    0.005086269438223511
424.7099    0.009470712550862693
424.7856    0.009431284105605146
425.0407    0.006537236223701227
425.0901    0.006560893290855755
425.3708    0.07235908273664952
425.5444    0.006071980569662177
425.7672    0.00660820742516481
425.8316    0.006087751947765196
426.072     0.004889127211935779
426.1651    0.00487335583383276
426.3684    0.012049332870706243
426.553     0.0032331325111188214
426.6649    0.004463300003154275
426.8714    0.004053244172475791
441.3716    0.5599391224805224
442.1651    0.003288332334479387
442.3772    0.19988644607765826
442.6243    0.003761473677569946
442.9178    0.0058196385200138786
442.9492    0.00580386714191086
443.3804    0.04054821310286093
443.7452    0.004281929154969561
443.9591    0.004573699649875406
444.3924    0.006758035517143488
459.3834    0.025683689240765854
460.3855    0.008437687285114973
461.3801    0.002263192757783175
487.1669    0.012033561492603222
505.3431    0.0017663943475380876
567.3927    0.00544901113459294
567.4117    0.005527868025108033
585.4112    0.013169100716020565
586.419     0.00567769611708671
603.4217    0.02388575213702173
604.4259    0.010968993470649464
616.2075    0.0013011386934990378
617.2229    0.0022237643125256282
621.437     0.025841403021796043
622.4405    0.011686591174336812
738.3391    0.002263192757783175
739.4232    0.0021370217329590257
747.4761    0.007231176860234047
748.4816    0.002507649118379964
757.4369    0.001671766078919976
765.4788    0.11136170078541463
766.484     0.05226634703340377
767.4857    0.018010913793647287
768.4921    0.005094155127275021
781.4703    0.01394978393211999
783.4894    0.05952118096079235
784.4951    0.029342648960666184
785.4966    0.009833454247232122
786.5065    0.003564331451282213
801.5027    0.024532378639245497


