PRECURSORMZ: 323.12888311999995
COMPOUNDNAME: challenge-039
FORMULA: C20H20O4
SMILES: CC(=CCc1cc(ccc1O)C1CC(=O)c2ccc(cc2O1)O)C	
INCHIKEY: NLTOTZSPOYWSSP-UHFFFAOYSA-N
PRECURSORTYPE: [M-H]-
IONMODE: negative
CHARGE: -1
PARENTMASS: 324.13615911999995
NUM PEAKS: 5
91.0183     0.075
132.0579    0.027999999999999997
135.0083    0.17600000000000002
187.1114    0.245
323.1277    1.0


