PRECURSORMZ: 295.1441038159999
COMPOUNDNAME: challenge-043
FORMULA: C18H18N2O2
SMILES: CN1CCc2c[nH]c3ccc(c(c23)C1c1ccc(cc1)O)O	
INCHIKEY: GAQDMHWCRNJIAM-UHFFFAOYSA-N
PRECURSORTYPE: [M+H]+
IONMODE: positive
CHARGE: 1
PARENTMASS: 294.13682781599994
NUM PEAKS: 12
107.0484    0.043
146.0582    0.022000000000000002
148.0744    0.08900000000000001
158.0593    0.012
160.0742    0.051
189.1009    1.0
201.1017    0.05
238.0863    0.191
252.1016    0.02
264.1028    0.019
266.1181    0.034
295.1435    0.17800000000000002


