PRECURSORMZ: 485.1806084759999
COMPOUNDNAME: challenge-233
FORMULA: C26H28O9
SMILES: OC1=C2C(O[C@@H]3[C@@]2(C2[C@@](C1=O)([C@]14[C@@](CC2)([C@@H](OC(=O)[C@H]1O4)c1cocc1)C)C)COC(=O)C3)(C)C
INCHIKEY: SNGHLUWTFLYPMT-UHFFFAOYSA-N
PRECURSORTYPE: [M+H]+
IONMODE: positive
CHARGE: 1
PARENTMASS: 484.1733324759999
NUM PEAKS: 47
105.0681    0.017019957685932594
155.078     0.011252307733771746
260.5577    0.0012802026762973844
268.5726    0.0023986955408519415
282.5783    0.0012802026762973844
290.5673    0.0073443206166534155
291.5645    0.003840608028892153
292.5611    0.0012802026762973844
307.1642    0.020240678103143908
312.08      0.0027086393466923607
312.5754    0.0007950732410689019
313.0686    0.005646367593353727
335.1632    0.04541350546444406
339.1552    0.021615211502957945
353.1747    0.09658118506340373
363.1589    0.04314956810004447
364.1781    0.014526931421564004
379.1617    0.03197811527214414
381.1692    0.3972401525462558
382.1688    0.10748312153839935
383.1654    0.029013435390192303
389.1565    0.017343377309418248
395.1578    0.06729823332030671
397.1671    0.0839408681121727
398.1672    0.021089654614793753
405.1693    0.023596156696807577
407.1468    0.03073834004878246
408.1538    0.01130621100435269
409.1248    0.008920991281145985
411.1762    0.01844839435632757
413.1645    0.025887045696497635
421.169     0.014392173245111647
423.1829    0.1347042731817753
424.1874    0.03852736264772865
425.1646    0.12545986227714367
426.1699    0.03409381864244613
439.1745    0.09259234304041399
440.1803    0.030873098225234815
441.1902    0.45749053323810424
442.1944    0.12378886088913446
443.1985    0.02891910466667565
449.1573    0.02590052151414287
457.1852    0.09883164661015807
458.1877    0.030576630237039635
467.1695    0.0835231177651704
468.1715    0.029013435390192303
485.1786    1.0


