PRECURSORMZ: 760.2458229160001
COMPOUNDNAME: challenge-069
FORMULA: C36H43NO17
SMILES: [C@@H]1([C@H]2[C@]([C@]34[C@@]([C@H]1OC(=O)C)([C@@H](C(=O)[C@H]([C@H]3OC(=O)C)[C@](O4)(C)COC(=O)c1c(nccc1)[C@H]([C@@H](C(=O)O2)C)C)OC(=O)C)COC(=O)C)(C)O)OC(=O)C
INCHIKEY: IMIAGCONYJPMDY-UHFFFAOYSA-N
PRECURSORTYPE: [M-H]-
IONMODE: negative
CHARGE: -1
PARENTMASS: 761.2530989160001
NUM PEAKS: 49
160.0772    0.21476334761257967
178.0834    0.012890502559816112
204.0676    0.15758541427228084
366.2282    0.008880994671403197
369.1214    0.06746943893010135
375.1901    0.028562846097586456
385.1976    0.036242294431093926
386.1989    0.01167589593563891
419.1415    0.02417458990701076
453.1366    0.01982551457527949
465.139     0.014509978058719047
508.1406    0.01797095392331
509.1469    0.007509664611848292
531.1126    0.00562898338731585
657.4106    0.04256347299132797
658.2143    0.056720823320447186
658.4123    0.016664925295162468
659.2238    0.020374046599101452
660.1922    0.008959356389092048
718.2353    1.0
718.6628    0.004662522202486679
719.2364    0.4043334029881935
719.5228    0.009899697001358268
719.754     0.00945564726778811
719.8385    0.011297147633476126
720.017     0.006595444572145021
720.2415    0.12490857799602967
720.4492    0.012315849963431198
720.5169    0.011153484484379897
720.7619    0.011414690210009404
721.0457    0.007287639745063211
721.2519    0.040695852053077006
721.4074    0.011832619371016612
721.5961    0.006739107721241249
721.7216    0.009742973565980565
721.8818    0.005746525963849128
721.9861    0.0101478424407063
722.2545    0.011845679657298089
722.4354    0.009808274997387942
722.5283    0.0090899592519068
722.7276    0.0067652282938042
722.752     0.006882770870337478
722.9494    0.005772646536412078
723.327     0.012877442273534635
723.77      0.004649461916205203
724.1897    0.002990805558457841
724.7124    0.0036699404450945567
737.3547    0.014496917772437572
760.2511    0.004819245637864382


