PRECURSORMZ: 586.1829797559999
COMPOUNDNAME: challenge-226
FORMULA: C25H33Cl2N5O7
SMILES: C12N(CC(C1Cl)Cl)C(=O)C(NC(=O)CC(NC(=O)C(NC(=O)C(NC2=O)C(C)O)CO)c1ccccc1)CC
INCHIKEY: DQILVZOWLYBPKT-UHFFFAOYSA-N
PRECURSORTYPE: [M+H]+
IONMODE: positive
CHARGE: 1
PARENTMASS: 585.1757037559998
NUM PEAKS: 118
106.0639    0.07187564279627398
196.0251    0.015684229085245804
216.1012    0.023912021392259997
221.016     0.0059210719637977135
235.1084    0.04083041932355793
239.0367    0.05084334871146896
240.0469    0.006516117657429991
241.0349    0.03202227380917399
243.0316    0.006824659868943023
252.128     0.019533660486027445
253.0359    0.0071038171079310045
265.0113    0.004547324498251594
267.0323    0.05367165231700509
269.0295    0.03435103288178426
270.035     0.005245217595721548
282.0352    0.010233316681848903
290.0492    0.010630013810937085
291.0407    0.01800564191472481
292.1651    0.013531779847785842
294.0199    0.0042387822867385625
296.0273    0.01052716640709941
298.0304    0.007728247774088331
298.531     0.001836560782815668
299.0369    0.001843907025946931
307.059     0.00555375980723458
308.0553    0.011401369339719667
309.0584    0.013928476976874027
310.0428    0.028643001968793158
311.0489    0.009528077341247686
312.0363    0.01745467367988011
312.5685    0.0036510828362375483
313.5593    0.003026652170080221
318.0423    0.006663042520055244
319.5417    0.0011607064147395024
320.0431    0.004767711792189475
320.1522    0.021531838617730895
320.5513    0.006405924010461051
321.0524    0.005370103728953013
321.5508    0.006861391084599337
322.053     0.00310746084452411
322.5485    0.002358144045135318
323.0498    0.0025491463665481477
323.5488    0.000984396579589198
324.0451    0.002306720343216479
324.5495    0.0006097381798948018
325.1104    0.006736504951367871
329.0538    0.0017410596221092533
329.5567    0.0003526196703006083
330.0532    0.002306720343216479
330.5498    0.0006244306661573271
335.0689    0.03990479268901884
338.0506    0.0831521260027622
339.067     0.016499662072815963
340.0507    0.017080015280185712
342.0489    0.0015647497869589492
343.0488    0.0011386676853457143
343.5518    0.0005215832623196497
344.0486    0.0010505127677705622
344.5498    0.0007125855837324792
353.077     0.030810143692515647
354.0657    0.044143574975757396
355.0739    0.029899209544239077
371.0861    0.02081190679086715
373.0842    0.015316916928682672
378.0886    0.006119420528341806
379.0705    0.008367370926508185
380.0613    0.0045693632276453825
393.1096    0.008426140871558286
394.0989    0.005157062678146396
395.1093    0.006854044841468073
399.0685    0.004855866709764626
429.1766    0.014068055596368017
438.1145    0.007390320590050248
439.1034    0.008477564573477125
441.0943    0.00997619817225471
442.0984    0.006589580088742618
455.1259    0.011621756633657547
457.1116    0.017873409538362084
459.1178    0.026233434221739006
460.116     0.006391231524198525
461.1198    0.012922041667891042
465.1074    0.016147042402515355
466.0931    0.014538215156768829
467.1026    0.014082748082630542
469.1072    0.005186447650671447
475.1337    0.008293908495195557
483.12      0.0830125473832682
484.12      0.0302297904851459
485.1153    0.061657018600687605
486.2458    0.005428873674003115
487.1094    0.012371073433046342
496.1822    0.004708941847139373
501.1312    0.20537157297757927
502.134     0.05428873674003115
503.1068    0.14392759542769828
503.1283    0.1405189386147924
504.1329    0.03339602127472011
505.1251    0.027555757985366285
524.1405    0.009388498721753695
525.1449    0.009697040933266728
541.1646    0.015434456818782874
542.1659    0.011798066468807851
543.1618    0.01151890922981987
544.1616    0.006861391084599337
550.1747    0.013928476976874027
555.1467    0.006016573124504129
556.1334    0.004716288090270636
558.1867    0.2331991419588023
559.1981    0.06626311304398931
560.187     0.1548881901795422
561.1903    0.044775351885045986
562.1819    0.028224266110311185
563.1906    0.004767711792189475
568.1727    0.027783491522435425
569.1728    0.010578590109018248
570.1694    0.021539184860862155
571.1793    0.007662131585906967
586.1815    1.0


