PRECURSORMZ: 779.239305124
COMPOUNDNAME: challenge-232
FORMULA: C36H42O19
SMILES: O([C@@H]1O[C@@H]([C@@H](O)[C@H](O)[C@H]1O)CO)c1ccc(/C=C/C(=O)O[C@H](C2=CC3(OC2=O)[C@H]2[C@H](O[C@@H]4O[C@@H]([C@@H](O)[C@H](O)[C@H]4O)CO)OC=C([C@H]2C=C3)C(=O)OC)C)cc1
INCHIKEY: AFYIWKNGSIYXCQ-VMPITWQZSA-N
PRECURSORTYPE: [M+H]+
IONMODE: positive
CHARGE: 1
PARENTMASS: 778.232029124
NUM PEAKS: 61
119.0492    0.12408044100416803
120.0468    0.01042006799454507
127.0303    0.006693813264698538
147.0434    1.0
147.561     0.005723834585021992
148.0437    0.11137468067533565
165.0548    0.02560359564373932
185.061     0.06766801759406872
203.0683    0.03821331847953441
213.0561    0.06395136661352592
231.0668    0.2853562030616753
232.0722    0.04343775810076254
241.0501    0.017075466262028695
245.0818    0.018218312429172347
259.0651    0.017325163743925627
263.0928    0.04062385955477018
264.0882    0.0061079845571711195
273.0774    0.1543802700574304
274.0804    0.02794691047384899
291.0867    0.3717419280487102
292.0911    0.06306782167758293
293.0961    0.013320400284270978
309.0973    0.19752031192977737
310.1007    0.031231392735724024
311.1045    0.008182394406776405
336.0497    0.0013829398997368572
336.5555    0.0004609799665789524
378.0281    0.01695061752108023
380.0207    0.029771622841557342
381.0212    0.012369629103201892
409.0986    0.0014981848913815953
417.0881    0.0012292799108772066
437.1231    0.03153871271344332
438.1253    0.010372049248026429
455.1341    0.24288842364058927
456.1384    0.06724545262470469
457.1421    0.014828188924956303
458.1054    0.0032364635153563953
471.1504    0.02988686783320208
472.1537    0.007558150702034074
474.0284    0.007289245721529686
506.0488    0.013099514050285232
507.0591    0.007932696924879473
508.0502    0.005627797091984711
525.0712    0.0071740007298849474
527.0795    0.005166817125405758
599.174     0.019601252328909205
600.1787    0.006434512033497877
617.1857    0.25306839790254115
618.1922    0.08713481743272573
618.9203    0.0013829398997368572
619.1958    0.0235195820448303
619.6463    0.0016614486295449744
620.1894    0.005320477114265409
620.8087    0.001037204924802643
670.0998    0.03869350594472082
671.1017    0.02132032345427655
672.1033    0.005963928317615197
763.2222    0.007913489426272017
764.2122    0.005647004590592167
779.2413    0.03562990991683153


