PRECURSORMZ: 755.2404031880001
COMPOUNDNAME: challenge-074
FORMULA: C34H44O19
SMILES: C1C(C(C(C(O1)OC1C(C(C(OC1OC1C(C(OC(C1O)OCCc1ccc(c(c1)O)O)CO)OC(=O)/C=C/c1cc(c(cc1)O)O)C)O)O)O)O)O
INCHIKEY: UDHCHDJLZGYDDM-QPJJXVBHSA-N
PRECURSORTYPE: [M-H]-
IONMODE: negative
CHARGE: -1
PARENTMASS: 756.2476791880001
NUM PEAKS: 11
133.027     0.008273822780971154
162.0056    0.004814549796945414
179.0351    0.025721827064783178
377.1088    0.004298028214399105
377.6162    0.00150217744648789
378.1175    0.00027958507679112153
378.6224    0.00033644983817236653
403.5804    0.00017059428414373517
619.1815    0.006245646291706749
751.2071    0.005165215825463092
755.241     1.0


