PRECURSORMZ: 267.159085184
COMPOUNDNAME: challenge-176
FORMULA: C15H22O4
SMILES: C1(=C(C(C2C(C1)OC(=O)C2=C)O)C(CCCO)C)C
INCHIKEY: ASZIGQFYGXSPCO-UHFFFAOYSA-N
PRECURSORTYPE: [M+H]+
IONMODE: positive
CHARGE: 1
PARENTMASS: 266.151809184
NUM PEAKS: 52
69.0555     0.01516170618238888
85.0572     0.032257160473067654
93.068      0.0355641499915924
105.0695    0.1214898268034303
117.0627    0.12381592960035874
119.0839    0.10475870186648731
128.0617    0.16613418530351437
129.068     0.2554509276385853
131.0812    0.10033069895185248
132.0909    0.015610111540832914
133.0837    0.09074603441511127
143.0768    0.42503222913513816
144.0876    0.07345440278011323
145.0955    0.12104142144498627
146.0879    0.02264447060142369
147.0806    0.16621826130822265
155.0833    0.06927862787960316
156.0902    0.05109018552771706
157.0892    0.22341796984473966
159.1195    0.11602488649739365
160.1166    0.019645759766829213
161.0558    0.1518412645031108
161.0951    0.15189731517291633
162.0726    0.025222801412476882
163.0634    0.09741606412196627
171.0974    0.04876408273078864
175.0786    0.2997309567849336
176.0755    0.03968387422229696
185.1328    1.0
186.1374    0.17846533266072528
187.1433    0.04475645983969508
189.0918    0.2916036096631355
190.0844    0.044588307830278576
195.118     0.17504624180258957
196.0927    0.0395437475477832
203.143     0.36620705117426156
204.1463    0.07191300936046187
213.1278    0.18558376772602433
214.1263    0.0381985314724511
219.1366    0.01437699680511182
221.1468    0.020038114455467743
231.1386    0.5451768398632364
231.7763    0.004708256263662352
232.1406    0.09492180931562132
232.4615    0.005717168320161426
233.1453    0.012443248696821927
249.1493    0.41250490443360804
250.1541    0.07653718961941597
250.321     0.004371952244829326
250.61      0.0036713188722605236
251.1579    0.009192309848102685
267.1601    0.1838461969620537


