PRECURSORMZ: 787.0999465360001
COMPOUNDNAME: challenge-116
FORMULA: C34H28O22
SMILES: c1c(c(c(cc1C(=O)OC[C@H]1O[C@@H](OC(=O)c2cc(c(c(c2)O)O)O)[C@H](OC(=O)c2cc(c(c(c2)O)O)O)[C@@H](OC(=O)c2cc(c(c(c2)O)O)O)[C@@H]1O)O)O)O
INCHIKEY: RATQVALKDAUZBW-UHFFFAOYSA-N
PRECURSORTYPE: [M-H]-
IONMODE: negative
CHARGE: -1
PARENTMASS: 788.1072225360001
NUM PEAKS: 49
124.0175    0.007024877980455325
167.0007    0.005042397077995539
168.0074    0.005893570943725557
169.0141    0.07523730511889498
170.0146    0.006927908805878487
211.0252    0.012002628942066306
273.005     0.012175018585758462
295.0481    0.023434217189402348
298.9851    0.023434217189402348
299.9925    0.00754204691153179
300.9987    0.02552444161916973
313.0559    0.03150420738474136
391.0273    0.0013898915022680014
391.9435    0.0055272429508797264
392.0324    0.0026397164190361264
392.5391    0.0
393.0407    0.0025211985389977697
393.5426    0.0001292922327691164
394.0433    0.0011313070367297685
394.557     0.0002478101128074731
403.0651    0.025513667266438972
404.0684    0.006658549987609495
419.4973    0.0003771023455765895
419.999     0.000754204691153179
420.503     0.0003771023455765895
421.0747    0.011183778134528569
442.5026    0.0
448.0551    0.01290767457145012
465.0655    0.16560180147177658
466.0687    0.03685906069192894
467.0741    0.011614752243758956
573.0866    0.03568465624427613
615.0515    0.005796601769148719
617.0773    0.4927757964940257
618.0812    0.15501061273743982
618.7498    0.0060444118819561925
619.08      0.04895865880857208
620.0786    0.010634286145259825
635.0897    0.07516188464977967
723.0547    0.0067447448094555724
751.0437    0.012164244233027702
753.0549    0.01648475967806234
754.0481    0.008296251602684969
755.0515    0.007639016086108628
766.0581    0.007412754678762673
767.05      0.006809390925840131
781.0533    0.005538017303610486
783.0634    0.020331203602943552
787.0983    1.0


