PRECURSORMZ: 354.13359870799997
COMPOUNDNAME: challenge-235
FORMULA: C20H19NO5
SMILES: c12c(cc3c(c1)CCN(Cc1c(CC3=O)cc3c(c1)OCO3)C)OCO2
INCHIKEY: ZAALQOFZFANFTF-UHFFFAOYSA-N
PRECURSORTYPE: [M+H]+
IONMODE: positive
CHARGE: 1
PARENTMASS: 353.126322708
NUM PEAKS: 12
188.0695    0.10916575983412688
190.2634    0.0007500677978901983
206.0818    0.028275153017263573
248.0804    0.004527011022735465
291.0748    0.0015876721122389781
306.1043    0.009290885560594148
324.117     0.006630462021166673
337.1279    0.009302042175436911
338.1289    0.0016108435430662496
347.6503    0.00031410161788079244
348.1522    0.000315818020164294
354.1333    1.0


