PRECURSORMZ: 577.1340522079998
COMPOUNDNAME: challenge-029
FORMULA: C30H24O12
SMILES: c1cc(c(cc1[C@@H]1[C@@H](Cc2c(cc3c([C@H]4c5c(cc(cc5O[C@](c5ccc(c(c5)O)O)([C@@H]4O)O3)O)O)c2O1)O)O)O)O	
INCHIKEY: NSEWTSAADLNHNH-LSBOWGMISA-N
PRECURSORTYPE: [M+H]+
IONMODE: positive
CHARGE: 1
PARENTMASS: 576.1267762079998
NUM PEAKS: 10
259.0646    0.015
287.0532    0.782
299.0573    0.028999999999999998
311.0602    0.017
419.0757    0.021
425.0861    1.0
437.0865    0.28300000000000003
451.1013    0.019
559.1276    0.071
577.1332    0.242


