PRECURSORMZ: 977.4138558400002
COMPOUNDNAME: challenge-237
FORMULA: C48H60N6O16
SMILES: N1C(=O)C2N(C(=O)C(N(C(=O)C(NC(=O)C(N(C(=O)C(NC(=O)C1C)CCC(=O)O)C)Cc1ccc(cc1)OC)C)C)Cc1ccc(cc1)Oc1cc(ccc1OC1OC(C(C(C1O)O)O)CO)C2)C
INCHIKEY: KGNAXTMQQANFON-UHFFFAOYSA-N
PRECURSORTYPE: [M+H]+
IONMODE: positive
CHARGE: 1
PARENTMASS: 976.4065798400002
NUM PEAKS: 55
297.1577    0.0018015496098259286
434.6382    0.0011308188320138135
435.1365    0.005149660269317809
435.6383    0.0029365258640162636
436.139     0.0023018260784006673
436.6465    0.0008772160792460098
508.1768    0.001833423179845926
508.6808    0.0006416288225764653
515.663     0.0005917397564582089
516.1634    0.005763572944050797
516.6647    0.0032940641711971014
517.1652    0.004053486622108339
517.6659    0.002056538169985906
518.1638    0.001984476185592869
518.6656    0.0009977813223651297
556.2805    0.0021480014578693766
584.2693    0.0012985015264668424
586.2308    0.0007538792213425424
624.2594    0.000770508910048628
652.2649    0.0025817591716197734
653.2618    0.0009340341823251354
687.2828    0.002296282848831972
688.3077    0.0009672935597373062
715.2799    0.0028506058057014886
716.3016    0.0015576475088033414
718.3313    0.0018348089872380997
746.3263    0.0017876915359041907
771.375     0.0012458408455642384
787.3607    0.005547386990871686
788.3687    0.0030293749592919077
789.3706    0.0010005529371494772
797.3486    0.0009395774118938304
814.3149    0.00793236151280278
815.3579    0.03132479029269638
816.3623    0.014516332433020463
817.3642    0.004381922974053528
818.3666    0.0012098098533677196
851.2695    0.0013234460595259706
866.2998    0.0007455643769894996
868.2732    0.010424043203931258
869.2759    0.006484192787981169
870.2795    0.0025789875568354255
871.2857    0.0010906304176407737
906.3875    0.0008051540948529727
933.4344    0.0010532136180520814
937.4087    0.00134146155562423
937.4263    0.0013456189778007512
949.414     0.012724483474939752
950.4241    0.007682916182211498
951.4227    0.0019886336077693904
959.3982    0.001840352216806795
960.393     0.0014287674213311788
965.4166    0.0007330921104599355
967.4146    0.0010310406997773008
977.4127    1.0


