PRECURSORMZ: 265.144533184
COMPOUNDNAME: challenge-060
FORMULA: C15H22O4
SMILES: C12=C(C(=O)OC1)CC(C1C(C2O)CC(C1)(C)C)(C)O
INCHIKEY: UUZWMJQAEYBHAO-UHFFFAOYSA-N
PRECURSORTYPE: [M-H]-
IONMODE: negative
CHARGE: -1
PARENTMASS: 266.151809184
NUM PEAKS: 10
113.0228    0.03957798688337611
165.0899    0.11485600228115199
201.1255    0.09729113202167095
203.1429    0.4453949244368406
221.1547    1.0
222.1578    0.176732249786142
223.1596    0.019332763045337896
247.1324    0.14314228685486172
248.1326    0.03455945252352438
265.1442    0.4913601368691189


