PRECURSORMZ: 419.15001248799996
COMPOUNDNAME: challenge-101
FORMULA: C25H24O6
SMILES: c1(c(c2c(occ(c2=O)c2ccc(c(c2)O)O)c2c1OC(C=C2)(C)C)O)CC=C(C)C
INCHIKEY: GHCZYXUOYFOXIP-UHFFFAOYSA-N
PRECURSORTYPE: [M-H]-
IONMODE: negative
CHARGE: -1
PARENTMASS: 420.15728848799995
NUM PEAKS: 37
116.9299    0.010314788518914434
241.1229    0.004419484021251815
255.0886    0.004009977078247736
267.0687    0.012763852768958311
268.0791    0.0029037765049380157
269.092     0.0021565592907552477
283.1057    0.0019358510032920105
293.0699    0.0019385101392855437
295.0973    0.0025208609218692665
303.122     0.003980726582318873
304.1281    0.0009413341417106754
305.077     0.0020634895309815933
309.1035    0.00354994655136653
310.1239    0.004193457461801511
317.0859    0.0018321446995442244
319.0908    0.0026804090814812453
320.1178    0.0016513234519839816
321.0656    0.001986374587169137
332.1009    0.002185809786684111
333.0729    0.002286856954438364
347.0921    0.002730932665358372
350.0954    0.0018294855635506912
361.0993    0.002478314745972739
363.092     0.005421978290813749
364.0997    0.004368960437374689
375.106     0.006331402800602029
376.1002    0.007913588716754153
377.1082    0.0032148954161813747
391.1564    0.025080970691003082
392.159     0.006674431343767783
393.1008    0.009128813865798726
394.1112    0.0024011998021602823
401.1447    0.0052491344512341056
402.1422    0.002616589817636454
403.1157    0.0030473698485887967
404.1264    0.0052890214911371
419.1509    1.0


