PRECURSORMZ: 439.2115146799999
COMPOUNDNAME: challenge-222
FORMULA: C26H30O6
SMILES: c1(c(c(c2c(c1)OCC(C2=O)c1c(c(c(cc1)O)CC=C(C)C)OC)O)CC=C(C)C)O
INCHIKEY: ARNVYCOTFWJTBS-UHFFFAOYSA-N
PRECURSORTYPE: [M+H]+
IONMODE: positive
CHARGE: 1
PARENTMASS: 438.2042386799999
NUM PEAKS: 69
171.0801    0.027356914752622304
203.1058    0.5009277452634503
203.6322    0.002465572446176049
203.9124    0.004426249510882599
204.1071    0.08836510668018664
204.2161    0.0034879855936517826
204.462     0.002360385908369903
204.6439    0.0027937544441312225
205.1214    0.7000290314844345
206.1288    0.11916372494982602
206.5318    0.004624000201958153
218.5246    0.0011402220698186164
219.0385    0.007169514416866872
219.5373    0.0015315159904574773
220.5371    0.0017334741430452766
221.0373    0.010695367164128866
221.5379    0.000988753455377767
231.0676    0.0051793851215746
267.0615    0.01336710522440496
315.0858    0.016669962511517925
316.0809    0.005065783660743964
326.3689    0.002776924598082239
327.0882    0.03567506616233228
342.0874    0.003513230362725257
351.1268    0.13551812784792552
352.1287    0.03528797970320567
355.1368    0.014355858679782727
357.0959    0.006285947499295251
382.5622    0.0031429737496476255
382.6193    0.0030630319809149546
382.9447    0.0034290811324803406
383.0       0.0034753632091150447
383.1479    1.0
383.4916    0.00381196013009471
383.5869    0.0070685353405729725
383.8036    0.0073714725694546705
383.955     0.008616881177079433
384.153     0.33383682622763206
384.4157    0.010337732935587972
384.6679    0.007569223260530225
384.8572    0.010952022316375862
385.1596    0.05891708355597817
385.622     0.004910107584790868
385.8555    0.0034459109785293244
386.1619    0.012559272614053762
386.4115    0.0020658636025126962
386.6407    0.0028400365207659263
386.7362    0.0026128335991046523
387.466     0.0021710501403188415
387.5784    0.0018260382963146845
407.1843    0.42552582750249296
408.1901    0.13137798571987563
408.3389    0.005810504348411473
408.6279    0.004190631666196833
408.9648    0.0031177289805741503
409.1943    0.027937544441312225
409.5691    0.0033154796716497034
409.5955    0.0027516798290087643
409.7491    0.002154220294269858
409.9384    0.0023393486008086743
410.1147    0.00597459534738906
410.1811    0.006155516192415631
410.5609    0.002469779907688295
410.6092    0.002297273985686216
411.6052    0.002482402292225032
412.6139    0.0015273085289452314
413.147     0.009723443554800083
414.1488    0.0031892558262823292
439.2097    0.5862087826551607


