PRECURSORMZ: 513.1602669559999
COMPOUNDNAME: challenge-218
FORMULA: C23H28O13
SMILES: O([C@@H]1O[C@@H]([C@@H](O)[C@H](O)[C@H]1O)CO)[C@@H]1OC=C[C@@H]2[C@H]1[C@@]1([C@H]([C@H]2OC(=O)c2cc(c(cc2)O)OC)O1)CO
INCHIKEY: AKNILCMFRRDTEY-UHFFFAOYSA-N
PRECURSORTYPE: [M+H]+
IONMODE: positive
CHARGE: 1
PARENTMASS: 512.1529909559998
NUM PEAKS: 46
77.0351     0.014932360840746124
79.0507     0.023753788532144
81.063      0.021265061725352977
91.0508     0.061478944385580166
93.0692     0.008254687923514772
95.0352     0.02639036049577409
108.0212    0.021610033757977477
109.0618    0.036123499987679566
119.0486    0.09656752827538624
121.0267    0.05115442426631841
123.0444    0.12901954020156223
135.0429    0.025404726116846955
137.059     0.07372545154374983
147.0452    0.09548333045856638
151.038     1.0
152.0416    0.09888376906586502
165.0552    0.17889263977527536
166.055     0.019466278983810953
169.0556    0.035063943030332896
183.0651    0.19828499618066678
184.0633    0.021141857427987087
309.0917    0.023975556267402606
315.087     0.1402311312618584
316.0863    0.030727151763053493
327.1023    0.017445728507010323
333.097     0.20732819160732324
334.1025    0.03999211492496858
335.0908    0.01219722543922332
351.1078    0.12399280486903383
352.1068    0.02513367666264199
353.1028    0.007490821279846241
378.0272    0.018480644604883818
384.0203    0.02779488948574526
385.0235    0.03294482911563955
398.0269    0.019663405859596382
405.0406    0.006603750338811817
446.0248    0.004410713845698937
459.1237    0.02796737550205751
462.0743    0.008870709410344232
463.1024    0.021191139146933446
477.1388    0.06926545597910455
478.1383    0.020525835941157627
495.15      0.10341768720892984
496.1526    0.030209693714116744
497.156     0.01825887686962521
513.1605    0.09619791538328856


