PRECURSORMZ: 901.4427559560002
COMPOUNDNAME: challenge-152
FORMULA: C44H68O19
SMILES: C1[C@@H](CC2[C@](C1)(C1C(CC2)C2([C@](CC1)([C@H]([C@H](C2)OC(=O)C)C1=CC(=O)OC1)C)O)C)O[C@@H]1O[C@@H]([C@@H]([C@@H](C1)OC)OC1O[C@@H]([C@H]([C@@H]([C@H]1O)O)O)CO[C@@H]1O[C@@H]([C@H]([C@@H]([C@H]1O)O)O)CO)C
INCHIKEY: PKZLCDIEFSFXDK-UHFFFAOYSA-N
PRECURSORTYPE: [M+H]+
IONMODE: positive
CHARGE: 1
PARENTMASS: 900.4354799560001
NUM PEAKS: 135
69.0265     0.009340663649838831
85.0211     0.01935580007372144
95.0225     0.019034249100049406
95.043      0.02020281239461363
113.0521    0.07151764216866524
114.0734    0.005968299779619941
127.0304    0.014367838628467454
145.057     0.017504921298438517
163.0616    0.02485353745284572
199.144     0.01402275953477064
207.094     0.009419090716588108
213.1544    0.011646419412267562
215.1772    0.02305755762428729
231.1624    0.008532864862321283
239.0921    0.0067525704471127065
241.1155    0.01268165669335801
257.1045    0.018163708659132437
275.1121    0.021841938089673506
276.0389    0.008211313888649251
279.003     0.005144815578752539
289.0909    0.0035841169504419366
291.2121    0.03256291811429961
309.2168    0.03805281278674896
310.2167    0.008054459755150697
319.2052    0.044052483393068616
325.1147    0.025010391586344275
327.2262    0.013058106613754538
328.0164    0.008862258542668245
337.2166    0.5895127326342867
338.2213    0.15781878641956912
339.2299    0.14101970872187408
355.2271    0.7546487643815633
356.2325    0.2058083085634514
356.5349    0.005199714525477032
356.7225    0.006321221579991686
357.2402    0.10491972989718211
357.8328    0.005356568658975585
373.2362    1.0
374.0618    0.0077093806614538804
374.2419    0.2887606170641612
374.4243    0.005591849859223415
374.4621    0.005591849859223415
374.6347    0.006070254966394002
374.7626    0.005176186405452249
374.8658    0.0055447936191738495
375.251     0.07987012477746319
375.4234    0.005489894672449355
375.4671    0.0057016477526724025
375.8237    0.006258479926592265
376.2553    0.02142627463590234
378.0231    0.02383398558510513
379.03      0.01278361188013207
397.238     0.013489455480875559
415.2475    0.046185699608648934
416.2506    0.014414894868517023
433.2573    0.3683327189879771
433.9853    0.0015999121616852407
434.2629    0.11188405342451786
434.4469    0.0025488796693514866
434.759     0.0034900044703428043
434.9844    0.0031292399632961323
435.2677    0.02297128785086309
435.4375    0.002219485989004525
435.6441    0.0030194420698471456
435.8607    0.0019842047887566956
436.2803    0.0035527461237422255
436.551     0.0016469684017348066
437.1675    0.027669069149144753
438.1769    0.005121287458727756
440.1595    0.0022273286956794526
448.1802    0.0016469684017348066
454.2014    0.005725175872697185
465.0864    0.008470123208921862
467.0983    0.00734077344773228
470.1952    0.007246660967633149
470.7087    0.0048232646050805055
477.6803    0.0015136423882610365
478.179     0.0017959798285584318
478.6829    0.0020783172688558275
479.1798    0.0022743849357290185
479.6888    0.0019842047887566956
480.1769    0.0015057996815861089
480.6891    0.0015528559216356748
486.1929    0.005285984298901237
490.0794    0.013489455480875559
491.0842    0.007772122314853302
493.0798    0.004697781298281662
517.3097    0.007725066074803736
522.0955    0.0053173551256009465
523.1203    0.006180052859842989
545.3066    0.0010352372810904498
549.2222    0.007199604727583583
577.3391    0.004956590618554276
578.3407    0.0020783172688558275
599.2242    0.01111311535837248
629.3348    0.004595826111507603
630.3375    0.0019371485487071297
648.2236    0.042491784764758005
649.2257    0.019708721874093185
689.3522    0.0055526363258487765
690.348     0.0034037346969186004
707.3635    0.05588712776553444
708.3697    0.021308634035778425
709.3712    0.005693805045997474
710.3672    0.0015528559216356748
711.2709    0.014846243735638044
712.2855    0.006446704886790529
757.3643    0.003795870030664983
758.3745    0.001411687201486977
761.2687    0.007827021261577796
787.4787    0.019920474954316234
788.4954    0.010720980024626098
791.3787    0.0023292838824535123
792.309     0.020798858101908128
792.3653    0.020179284274588847
793.3156    0.013552197134274982
807.507     0.0073015599143576426
808.5123    0.004125263711011944
851.4001    0.0011607205878892924
860.4657    0.111978165904617
861.4692    0.05552636325848777
862.4677    0.0177558879120362
865.5036    0.2700008626977342
866.5079    0.14246276675006078
867.5123    0.044287764593316445
868.2285    0.0016704965217595896
868.5145    0.012501274439834675
869.4187    0.017904899338859828
870.4217    0.007685852541429098
871.4266    0.0034351055236183105
872.4265    0.0019763620820817678
873.3314    0.017583348365187792
874.3372    0.006117311206443567
875.3123    0.004180162657736438
901.4428    0.002980228536472507


