PRECURSORMZ: 395.1500124879999
COMPOUNDNAME: challenge-031
FORMULA: C23H24O6
SMILES: CC(=CCc1c(c(CC=C(C)C)c2c(c1O)c(=O)c1c(ccc(c1o2)O)O)O)C	
INCHIKEY: OJXQLGQIDIPMTE-UHFFFAOYSA-N
PRECURSORTYPE: [M-H]-
IONMODE: negative
CHARGE: -1
PARENTMASS: 396.1572884879999
NUM PEAKS: 24
272.0383    0.011000000000000001
283.0238    0.017
285.0374    0.046
297.04      0.377
298.0473    0.013000000000000001
299.0495    0.013000000000000001
309.0393    0.022000000000000002
311.0632    0.01
323.0829    0.018000000000000002
325.0754    0.044000000000000004
326.0768    0.013999999999999999
337.0714    0.214
338.073     0.011000000000000001
339.0897    0.077
340.0923    0.20199999999999999
351.0867    0.29600000000000004
352.0908    0.03
353.107     0.011000000000000001
361.1124    0.011000000000000001
363.1192    0.027999999999999997
365.1041    0.028999999999999998
379.1194    0.10300000000000001
393.1359    0.011000000000000001
395.1501    1.0


