PRECURSORMZ: 263.127785056
COMPOUNDNAME: challenge-143
FORMULA: C15H18O4
SMILES: C1(=C2[C@]([C@H]3[C@@H](CC1)C(=C)C(=O)O3)(OC(=O)CC2)C)C
INCHIKEY: IOGFBFUSBVLQMS-UHFFFAOYSA-N
PRECURSORTYPE: [M+H]+
IONMODE: positive
CHARGE: 1
PARENTMASS: 262.120509056
NUM PEAKS: 185
55.0215     0.003837398905585275
69.0329     0.0036943648675709143
77.0304     0.00754811052035783
79.051      0.012664642394471529
81.0666     0.007703404618773422
83.0421     0.004867243979288671
85.0378     0.0019330028565940733
91.0558     0.04441002546005877
93.0681     0.016130152801219468
95.0634     0.006040123091006429
95.0838     0.005063404945708366
99.0811     0.0016796282749686347
105.0682    0.08056903027008913
106.0721    0.008018079502405014
107.0818    0.015717397434378028
109.0651    0.00849213517125261
116.0607    0.008949844092898564
117.0593    0.049081108472927744
119.0843    0.10930661185057437
120.083     0.011969905638401777
121.0681    0.015974858702803876
123.0236    0.004777336869679644
128.0618    0.05550129343637233
129.0669    0.08647429269668201
131.054     0.07919590350515127
131.0841    0.07924085705995577
132.0866    0.010633559054667608
133.0854    0.059604326983984275
134.0933    0.0075154170259545475
135.0474    0.01724173161093107
135.0787    0.01724173161093107
141.0712    0.06682550256030928
142.0779    0.1588985561735534
142.7585    0.001994303158600228
143.0661    0.14198784619345559
143.0852    0.14166499793622317
144.0921    0.0296284793029747
145.1018    0.08157026853618965
146.0999    0.011034054361107819
147.0814    0.10836667388648
148.0869    0.011520370090356644
149.0658    0.012358140884440757
155.0857    0.040368292214452976
156.0863    0.08223231179785612
157.1003    0.3799392718341459
157.5382    0.0023375848498346937
157.8539    0.0032652627535278327
158.1004    0.056817206586104445
158.3374    0.002415231899042489
158.5247    0.0023825384046392067
158.7638    0.0018635291809870984
159.1135    0.054005566067422156
159.5284    0.0015284208633534534
160.0998    0.00969770777737365
161.0597    0.08645794594948038
162.0676    0.007932259079596398
163.0777    0.02619157570382963
165.0688    0.018905013138698065
170.5242    0.0009848915188988832
171.1176    0.21876034442596354
171.5485    0.0015692877313575565
171.6467    0.0018962226753903807
172.0991    0.035819809805596306
172.12      0.03588111010760246
172.4596    0.0021455105702154094
173.1044    0.05077299680829761
174.123     0.008185633661221837
175.1112    0.46679771309006646
175.3479    0.0017695353845776612
175.495     0.0021209904494129475
175.6528    0.0034042101047417825
175.767     0.004421795118043948
175.8375    0.004675169699669387
176.1172    0.07564457267559471
176.3433    0.003473683780348758
176.473     0.0029751079906987004
176.6349    0.002709473348672031
176.7237    0.0024070585254416686
177.0886    0.031050646309517482
177.3222    0.002063776834207203
177.3492    0.002063776834207203
177.5198    0.0019575229773965354
177.5532    0.0019575229773965354
179.5364    0.0007356036240738546
180.5338    0.0006865633824689309
181.1015    0.05781844485220497
183.1128    0.028377953142049144
184.097     0.03007392816421942
185.0939    0.11232667339607759
186.1038    0.01469163904747504
187.0727    0.026350956489045632
189.1029    0.14730871240758978
189.1278    0.147071684573166
189.7416    0.0020842102682092547
190.1226    0.025435538645753725
190.5131    0.001524334176553043
191.1108    0.011757397924780442
199.1118    0.44653591993363223
199.6643    0.002239504366624846
199.8634    0.003530897395554502
200.1156    0.07718934028614981
200.2979    0.0030200615455032143
200.3331    0.003007801485101983
200.5599    0.0020106499058018695
200.6509    0.0026073061786617735
200.8444    0.001736841890174379
201.006     0.003915045954793071
201.1271    0.1099073548102347
201.647     0.0020678635210076134
201.7566    0.0023008046686310004
202.1268    0.019015353682309142
202.4141    0.0016714549013678139
203.1072    0.31416404778154206
203.6543    0.001990216471799818
203.7403    0.003220309198723319
203.8084    0.0033306497423343973
204.1112    0.05204804309002562
204.2599    0.0023784517178387964
204.3184    0.002533745816254388
204.6536    0.0021659440042174605
204.7029    0.0022272443062236152
205.1052    0.006522352133454844
209.0951    0.021512319317359835
212.0769    0.007078141538310645
215.0991    0.009934735611797446
216.0793    0.004953064402097288
217.1215    0.49264600710266165
217.6671    0.002476532201048644
217.7535    0.0028811141942892637
217.8858    0.003882352460389788
218.127     0.0843246954396662
218.3125    0.0036044577579618874
218.6213    0.0022926312950301802
218.73      0.002541919189855209
218.8599    0.0029056343150917255
219.1382    0.044581666305676004
219.3638    0.002247677740225667
219.5422    0.0015284208633534534
220.1381    0.006109596766613403
220.343     0.001132012243713654
227.014     0.004523962288054206
227.1063    0.3828816863304413
227.8678    0.003203962451521678
228.1113    0.06865225156009269
228.3518    0.0025909594314601323
228.6204    0.002664519793867518
228.651     0.0025541792502564394
228.9578    0.0029832813642995215
229.115     0.017347985467741737
229.3391    0.0015570276709563255
230.1005    0.00903566451570718
233.035     0.010040989468608114
235.1363    0.011442723041148848
236.108     0.001990216471799818
244.055     0.00982439506818637
244.1067    0.009844828502188421
244.6888    0.0016755415881682244
244.9827    0.008749596439678459
245.1169    1.0
245.2692    0.0020024765322010484
245.3561    0.0028198138922831094
245.5354    0.0032734361271286525
245.685     0.004646562892066515
245.8575    0.006187243815821199
246.0061    0.006877893885090541
246.1227    0.2145061034667364
246.28      0.005210525670523137
246.2963    0.0054679869389489865
246.5101    0.005864395558588785
246.631     0.0041316403552148166
246.8158    0.005672321278969501
246.8517    0.005459813565348165
247.1277    0.04443863226766164
247.2907    0.0032693494403282426
247.3632    0.0033469964895360385
247.5169    0.002484705574649464
247.8271    0.003285696187529884
247.8693    0.003171268957118395
248.1208    0.005680494652570322
248.2946    0.0019861297849994076
248.4418    0.0022803712346289493
248.6509    0.0019738697245981762
249.3297    0.0010339317605038067
249.635     0.0012791329685284249
263.1281    0.41008676036077274


