PRECURSORMZ: 399.2166000599999
COMPOUNDNAME: challenge-037
FORMULA: C24H30O5
SMILES: CC(=C1CC[C@H](C)[C@](C)(COc2ccc3ccc(=O)oc3c2)[C@@H]1CCC(=O)O)C	
INCHIKEY: CVWWNYPTZYQCSE-GANZUKCXSA-N
PRECURSORTYPE: [M+H]+
IONMODE: positive
CHARGE: 1
PARENTMASS: 398.2093240599999
NUM PEAKS: 19
93.0698     0.032
95.0856     0.057
107.0843    0.046
107.0852    0.083
121.1005    0.083
123.1185    0.012
149.1001    0.024
163.0338    1.0
163.1106    0.053
167.1073    0.033
181.1236    0.122
189.0547    0.35200000000000004
201.1638    0.024
219.1753    0.071
237.1834    0.184
339.1659    0.024
363.1784    0.025
381.205     0.057999999999999996
399.2206    0.075


