PRECURSORMZ: 377.16057717199993
COMPOUNDNAME: challenge-094
FORMULA: C20H26O7
SMILES: C1CC2(C3(C(C1O)C1(C(CC3OC2)C)CC(OC1=O)c1cocc1)CO)O
INCHIKEY: DHPGIJYSTONUPM-UHFFFAOYSA-N
PRECURSORTYPE: [M-H]-
IONMODE: negative
CHARGE: -1
PARENTMASS: 378.1678531719999
NUM PEAKS: 29
61.9932     0.006119122603458754
84.0135     0.012790761920548096
151.0683    0.01772197358970109
175.1141    0.006478258467318636
187.1045    0.008715951157522515
189.1183    0.007859550251395104
201.1267    0.029020940383446596
217.106     0.009213216199790044
223.1121    0.019269020387866733
231.1066    0.013619536990993976
237.1287    0.07667550693408476
238.1252    0.013163710702248742
239.1433    0.02020829880103873
249.1292    0.07383004585888722
250.1245    0.017279960218796617
256.1189    0.009282280788993867
267.1374    0.4568484446654511
268.139     0.09068180562462014
268.5691    0.005939554671528813
269.1434    0.014420686225758329
285.1501    0.3370904469860213
286.1527    0.065859992264766
287.143     0.01613348803801315
299.1276    0.047336869440300564
329.1393    0.6245234543344936
330.1444    0.1533924526216918
330.4578    0.008094369854688104
331.1443    0.026810873528924247
377.1607    1.0


