PRECURSORMZ: 154.09748797199998
COMPOUNDNAME: challenge-044
FORMULA: C7H11N3O
SMILES: C1CCN2C(C1)C(=NC2=N)O	
INCHIKEY: NBTGSOZRJDICGG-UHFFFAOYSA-N
PRECURSORTYPE: [M+H]+
IONMODE: positive
CHARGE: 1
PARENTMASS: 153.090211972
NUM PEAKS: 5
56.052      0.01
84.0805     0.42200000000000004
112.0757    0.013999999999999999
126.1034    0.092
154.0966    1.0


