PRECURSORMZ: 277.10814767600004
COMPOUNDNAME: challenge-087
FORMULA: C15H18O5
SMILES: C12=C(C[C@@H]([C@@H]3[C@@H]([C@H]1C(=CC2=O)CO)OC(=O)[C@@H]3C)O)C
INCHIKEY: ZHZZKRDEPZMPLJ-UHFFFAOYSA-N
PRECURSORTYPE: [M-H]-
IONMODE: negative
CHARGE: -1
PARENTMASS: 278.11542367600003
NUM PEAKS: 14
171.0803    0.07131428571428572
185.0923    0.1744
187.1117    0.1417142857142857
197.0968    0.20205714285714288
200.0828    0.41874285714285714
215.1075    1.0
215.6858    0.01657142857142857
216.1107    0.18617142857142857
217.1086    0.037371428571428576
233.1199    0.03005714285714286
241.0821    0.06514285714285714
259.0976    0.05668571428571429
260.1022    0.022857142857142857
277.1077    0.1848


