PRECURSORMZ: 328.154334152
COMPOUNDNAME: challenge-148
FORMULA: C19H21NO4
SMILES: c1(c(c2c3c(c1)CCNC3Cc1c2cc(c(c1)O)OC)OC)OC
INCHIKEY: GVVXPMORGFYVOO-UHFFFAOYSA-N
PRECURSORTYPE: [M+H]+
IONMODE: positive
CHARGE: 1
PARENTMASS: 327.147058152
NUM PEAKS: 67
251.1063    0.03030752974813362
253.0868    0.039221610646482365
265.083     0.22603401957195837
266.0929    0.05968791220933846
266.8436    0.0015366128219117536
267.0977    0.0335413227991906
268.105     0.012619216983542705
269.1075    0.003599817678298883
277.0804    0.003936491274111009
278.1316    0.006144724756386439
279.1025    0.050930945655702047
279.6565    0.0015504250719963536
280.11      1.0
280.8412    0.01079254690985435
281.1046    0.4951156430638334
281.4252    0.010321203875717373
281.6687    0.00627248806966899
281.92      0.015145132217763936
282.1015    0.10977285754735876
282.3435    0.010305665094372198
282.5196    0.01047486515790855
282.9789    0.00618270844411909
283.0998    0.022873086140097653
283.3522    0.0025155560466577805
283.6503    0.0015383393531723285
284.1084    0.004162666869246334
295.0984    0.009708285278213246
295.7747    0.0012223841324871029
296.105     0.6497334235733673
297.1098    0.15193302439933978
297.6181    0.007294594575929392
298.2529    0.0036326217722498087
298.8174    0.0014986291341791034
299.1226    0.004166119931767485
299.6463    0.0010290126313027023
310.579     0.0013069841642552782
310.6394    0.0015055352592214036
310.8759    0.001757608823265354
310.9501    0.0022358579824446304
311.1273    0.8731154911290824
311.3835    0.005170961125422137
311.5214    0.002494837671530881
311.6574    0.0061602635377316145
311.723     0.0072030884191189165
311.8371    0.006139545162604715
311.9478    0.006405430976733265
312.1314    0.22401915759086735
312.2637    0.009962085373517773
312.3106    0.008617117521529846
312.4703    0.006141271693865289
312.7426    0.005426487751987238
312.7747    0.005398863251818037
313.1391    0.03879170436259919
313.2509    0.006137818631344139
313.3204    0.005590508221741863
313.5159    0.002424049889847306
313.7114    0.002513829515397206
313.8683    0.0016143067286376288
314.1211    0.00644514119572649
314.2876    0.0019682456370555047
314.4036    0.001189580038536178
314.6411    0.0011049800067680026
314.9489    0.001232743320050553
315.0593    0.001234469851311128
315.3272    0.0007061512855751766
315.6521    0.0006388165664127515
328.1554    0.13612663070877562


