PRECURSORMZ: 899.4282039560001
COMPOUNDNAME: challenge-055
FORMULA: C44H68O19
SMILES: C1[C@@H](CC2[C@](C1)(C1C(CC2)C2([C@](CC1)([C@H]([C@H](C2)OC(=O)C)C1=CC(=O)OC1)C)O)C)O[C@@H]1O[C@@H]([C@@H]([C@@H](C1)OC)OC1O[C@@H]([C@H]([C@@H]([C@H]1O)O)O)CO[C@@H]1O[C@@H]([C@H]([C@@H]([C@H]1O)O)O)CO)C
INCHIKEY: PKZLCDIEFSFXDK-UHFFFAOYSA-N
PRECURSORTYPE: [M-H]-
IONMODE: negative
CHARGE: -1
PARENTMASS: 900.4354799560001
NUM PEAKS: 33
71.0077     0.002836103452991945
89.0169     0.002908085774133873
179.0634    0.003145627433902234
305.0975    0.0018535447694046343
323.1001    0.006967888686538587
803.3855    0.05443303124752561
821.0902    0.002033500572259453
821.3992    1.0
822.4011    0.49094462400034555
823.2067    0.015055102466834147
827.958     0.0026129582574519698
839.4079    0.049106339483022975
840.4105    0.022346911598511408
857.4143    0.013813407427135896
863.4077    0.08167114156763099
881.4159    0.011337215579853588
882.4247    0.004948784578507519
883.4183    0.0020047076438026823
899.429     0.18859368139185018
900.4356    0.09788156028879308
901.1417    0.0015800119490653095
901.4372    0.03453351856783974
901.728     0.0023430245531697413
901.9478    0.0029152840062480656
902.4412    0.008098011128466849
902.6732    0.0019543200190033326
903.4458    0.0031240327375596554
904.3742    0.002879292845677102
935.4024    0.019615182511175257
936.4124    0.008569495331946474
937.4139    0.008274367815264572
938.3964    0.004178573742288894
945.4335    0.46422838550851914


