PRECURSORMZ: 387.1438290439999
COMPOUNDNAME: challenge-217
FORMULA: C21H22O7
SMILES: c1(c2c(cc3c1oc(=O)cc3)cco2)OCC(C(C)(C)O)OC(=O)/C(=C\C)/C
INCHIKEY: VJVXQSFKTVUEFY-XGICHPGQSA-N
PRECURSORTYPE: [M+H]+
IONMODE: positive
CHARGE: 1
PARENTMASS: 386.1365530439999
NUM PEAKS: 156
55.0496     0.009788496355557312
67.0503     0.004638606145782647
83.0468     0.07698406621499124
84.0481     0.004549687178131861
85.051      0.0035592286773550555
91.0489     0.004038403114139845
101.0652    0.0033394012295517245
128.0632    0.00495229250388403
167.1069    0.0952964336084058
168.1088    0.012621553463764285
169.078     0.0026478092589345037
171.0797    0.03378920770729851
172.1026    0.00515483015242193
173.0213    0.14412035676265797
174.0267    0.021046625648676216
176.0366    0.0021093555103825243
177.0269    0.006550363950274536
185.1153    0.0470406038585892
186.0244    0.00866712937462796
186.1125    0.008607850062860769
191.0204    0.006599763376747195
199.0762    0.10302991382270052
199.8553    0.0017289799265430526
200.033     0.02371913462084705
200.0785    0.022787955431837436
200.3017    0.0011855862353438076
201.0182    0.24553737931102618
201.4397    0.0011979360919619722
201.7809    0.0017289799265430526
202.0255    0.04245386711060284
202.2244    0.0015931315037432414
202.5471    0.001568431790506912
202.8829    0.0018524784927246994
203.034     0.32602139489160525
203.3781    0.001360954199321746
203.7483    0.0019413974603754848
204.0457    0.04632678214605928
204.2445    0.0015190323640342535
204.619     0.0015289122493287852
205.0358    0.0067776013120487665
213.0575    0.015113754529309914
214.0739    0.0025119608361346924
215.0358    0.00991446489306259
216.0385    0.0022797835317131965
223.0772    0.016091863173468553
225.0222    0.008326273331966616
227.071     0.26495382388610467
227.7405    0.0016227711596268368
228.0753    0.04493865826217758
240.9793    0.006567653749539967
241.0866    0.14229010801184597
242.0914    0.028491119218105876
243.08      0.00834850307387931
251.0726    0.020369853506000794
252.0782    0.0036234479317695115
256.963     0.011863272267408975
258.9706    0.006935679476761275
268.7454    0.00178578926698661
268.8478    0.0016993402706594574
268.9515    0.001966097173611814
269.0823    1.0
269.2314    0.0029417358464468224
269.2632    0.003035594756744874
269.4607    0.0016030113890377732
269.6595    0.002991135272919481
269.6951    0.0029861953302722155
269.825     0.004818914052407851
269.9503    0.00737039442972067
270.0866    0.17677337766108533
270.3675    0.009247572635681699
270.7591    0.007960717576068942
270.9097    0.0068566403944050214
271.0911    0.03008672069317275
271.2785    0.0076297414187021274
271.5191    0.0032974117170499646
271.7556    0.0022649637037713993
272.0518    0.0032974117170499646
272.0994    0.0027638979111452517
272.5056    0.0010843174110748573
272.9688    0.002309423187596792
273.9599    0.004722585170786167
274.2899    0.0011090171243111867
274.9797    0.0052091695215418544
285.0753    0.003240602376606407
287.0921    0.1060136391816491
287.8366    0.0007706310529734749
288.0986    0.01979435018759432
288.4435    0.0008521401066533617
288.6405    0.0005804432610537391
289.101     0.0040631028273761735
289.5347    0.0003482659566322435
297.9772    0.003443140025144308
300.0031    0.002003146743466308
300.9842    0.0033122315449917623
302.9806    0.001966097173611814
309.0758    0.00585383203701005
310.0446    0.001612891274332305
311.9961    0.0013831839412344422
314.0448    0.0033443411721989906
314.5458    0.0011016072103402878
314.9754    0.008126205654752347
315.0164    0.008225004507697664
315.9953    0.0019957368294954096
321.5224    0.000807680622827969
327.0117    0.0017363898405139515
338.9997    0.002069835969204397
340.0197    0.00228225350303683
341.0137    0.024381086935580675
342.0198    0.005826662352450088
355.9847    0.02237053027814347
355.9997    0.022400169934027065
357.0079    0.029370429009319198
357.029     0.029414888493144595
358.0059    0.007903908235625383
359.023     0.012253527736542978
360.0327    0.0017684994677211795
361.0212    0.00845718181211916
362.0196    0.0011584165507838452
363.0178    0.003290001803079066
363.5827    0.00051375403531565
364.0535    0.002230384105240538
364.5641    0.0015881915610959755
368.5207    0.000911419418420552
368.7425    0.0016548807868340648
368.7748    0.001615361245655938
368.9785    0.008499171324620922
369.0071    0.008736288571689682
369.1341    0.6640073308748885
369.3305    0.0016277111022741026
369.8       0.006355236215707535
369.9811    0.005157300123745563
370.1375    0.17738593054934632
370.2976    0.010314600247491127
370.427     0.0032825918891081674
370.5974    0.005616714789941289
370.8444    0.005545085621555933
371.1447    0.03341624203742995
371.3011    0.004421248669302949
371.4773    0.002408222040542109
371.607     0.0021464050802370185
371.784     0.0024502115530438693
371.8845    0.0018401286361065348
372.1478    0.006041549857606153
372.3469    0.0016622907008049634
372.4218    0.0017512096684557492
372.6787    0.0016326510449213682
373.144     0.0019142277758155226
373.3453    0.0007212316265008163
373.5172    0.0011460666941656807
373.7206    0.0007385214257662468
373.9969    0.001536322163299684
374.0735    0.001420233511088936
374.3576    0.0006891219992935881
374.9878    0.0015881915610959755
383.0148    0.0031566233516028878
387.1431    0.12622294455161376


