PRECURSORMZ: 453.1391375879998
COMPOUNDNAME: challenge-174
FORMULA: C21H24O11
SMILES: c1(c(ccc(c1O)C(=O)[C@@H](Cc1ccc(c(c1)O)O)O)O)[C@H]1[C@@H]([C@H]([C@@H]([C@H](O1)CO)O)O)O
INCHIKEY: LNVWGAALAQOWHF-UHFFFAOYSA-N
PRECURSORTYPE: [M+H]+
IONMODE: positive
CHARGE: 1
PARENTMASS: 452.1318615879998
NUM PEAKS: 64
123.0403    0.565515873015873
135.0175    0.5433333333333333
135.0382    0.5484126984126985
153.0538    0.04972222222222222
163.0392    1.0
177.0506    0.16222222222222224
191.0314    0.07964285714285714
193.0497    0.07007936507936507
209.0378    0.031031746031746032
219.0607    0.10063492063492063
233.0461    0.11865079365079365
237.0757    0.054007936507936505
245.037     0.10031746031746032
245.5316    0.004761904761904762
246.0297    0.019484126984126986
254.031     0.006190476190476191
259.0613    0.06988095238095238
263.0573    0.07876984126984127
269.0822    0.26686507936507936
270.0803    0.05607142857142858
285.0766    0.12646825396825395
287.0907    0.0705952380952381
291.087     0.03777777777777778
293.0771    0.0496031746031746
297.0772    0.7440079365079365
298.0793    0.13837301587301587
299.078     0.27654761904761904
300.0796    0.048690476190476194
311.0921    0.15416666666666667
313.0711    0.05575396825396826
315.0878    0.42742063492063487
316.089     0.0701984126984127
316.1113    0.06849206349206349
321.0786    0.1126984126984127
323.0766    0.044126984126984126
329.0871    0.04186507936507936
333.0981    0.43448412698412703
334.0987    0.08099206349206349
335.0964    0.06329365079365079
339.0868    0.3306746031746032
340.086     0.07718253968253969
351.0858    0.21134920634920637
357.0992    0.19738095238095238
358.0933    0.051150793650793655
363.0861    0.11087301587301586
367.0097    0.022896825396825398
369.0955    0.1401984126984127
381.0987    0.25015873015873014
382.102     0.05603174603174603
384.0131    0.1332936507936508
385.0172    0.06694444444444445
387.0989    0.07920634920634921
399.1066    0.19146825396825398
400.1119    0.0448015873015873
405.1062    0.02742063492063492
417.1202    0.13968253968253969
418.1177    0.03714285714285714
433.1134    0.01904761904761905
435.1287    0.2781746031746032
436.1327    0.0675
437.133     0.016626984126984126
438.1063    0.004285714285714286
446.0245    0.042698412698412694
453.1393    0.9723809523809525


