PRECURSORMZ: 220.096819276
COMPOUNDNAME: challenge-020
FORMULA: C12H13NO3
SMILES: C1CC(=O)N2CCc3cc(c(cc3C12)O)O	
INCHIKEY: LJIDRFNRDLYHNC-UHFFFAOYSA-N
PRECURSORTYPE: [M+H]+
IONMODE: positive
CHARGE: 1
PARENTMASS: 219.089543276
NUM PEAKS: 19
91.0532     0.168
115.0555    0.043
119.0489    0.08800000000000001
127.0591    0.011000000000000001
128.0602    0.046
129.0727    0.043
137.0596    0.29600000000000004
143.048     0.035
157.0675    0.045
160.0489    0.021
161.063     0.059000000000000004
162.0558    0.046
164.0724    0.032
172.0748    0.044000000000000004
175.0753    0.06
200.0717    0.055
201.0797    0.024
218.0817    0.261
220.0974    1.0


