PRECURSORMZ: 433.17043771599987
COMPOUNDNAME: challenge-160
FORMULA: C19H28O11
SMILES: c1cccc(c1)CO[C@@H]1O[C@@H]([C@H]([C@@H]([C@H]1O)O)O)CO[C@@H]1O[C@@H]([C@H]([C@@H]([C@H]1O)O)O)CO
INCHIKEY: LLEMMFPELBNINR-UHFFFAOYSA-N
PRECURSORTYPE: [M+H]+
IONMODE: positive
CHARGE: 1
PARENTMASS: 432.1631617159999
NUM PEAKS: 24
69.0154     0.08678343949044585
85.0222     0.5082802547770701
91.0517     0.6183121019108281
109.0176    0.12197452229299362
127.0377    0.28200636942675156
145.0526    0.5047770700636943
163.0571    0.4230891719745223
235.0867    0.14585987261146496
235.1062    0.16337579617834394
253.1066    0.3531847133757962
271.117     0.4398089171974522
272.0251    0.12786624203821656
272.124     0.09394904458598727
275.9936    0.524203821656051
276.9984    0.48328025477707004
278.9958    0.12595541401273885
279.0149    0.12261146496815287
325.114     0.845859872611465
326.1114    0.11719745222929935
337.0076    0.04092356687898089
378.0271    1.0
379.0309    0.19331210191082804
396.0374    0.04856687898089172
433.174     0.1555732484076433


