PRECURSORMZ: 697.2290506559999
COMPOUNDNAME: challenge-124
FORMULA: C39H38O12
SMILES: c1(c(c(cc(c1)/C=C/COC(=O)/C=C/c1ccc(cc1)O)OC)OC(C(c1ccc(c(c1)OC)O)O)COC(=O)/C=C/c1ccc(cc1)O)OC
INCHIKEY: IKHAPHPJWABCCU-WGSZPKJISA-N
PRECURSORTYPE: [M-H]-
IONMODE: negative
CHARGE: -1
PARENTMASS: 698.236326656
NUM PEAKS: 12
149.0647    0.005011825287115351
163.04      0.20305754099542056
178.0301    0.007141032108438866
323.0956    0.00789116805010515
353.1042    0.0045728811116425025
523.1573    0.001759052404693427
551.1919    0.06452479379450861
552.1941    0.022520456763998716
653.2382    0.02812190855548058
654.2394    0.013040572854906021
655.2484    0.004461507216373273
697.2271    1.0


