PRECURSORMZ: 263.12888312
COMPOUNDNAME: challenge-096
FORMULA: C15H20O4
SMILES: C1C(=O)C(=C2C(C1)(CCC1(C2OC(=O)C1C)O)C)C
INCHIKEY: KLPWVMFJDOIILT-UHFFFAOYSA-N
PRECURSORTYPE: [M-H]-
IONMODE: negative
CHARGE: -1
PARENTMASS: 264.13615912
NUM PEAKS: 6
217.1152    0.18411352746037596
219.1398    0.17250276446737928
245.1196    1.0
246.1168    0.18392922963509029
247.1278    0.050313306302985625
263.1293    0.03722816070770365


