PRECURSORMZ: 331.15399980399997
COMPOUNDNAME: challenge-145
FORMULA: C19H22O5
SMILES: O1C(CC2(C1=O)C1CC(=O)C=C(C1(CCC2C)O)C)c1cocc1
INCHIKEY: DLHZVTVUHATYAU-UHFFFAOYSA-N
PRECURSORTYPE: [M+H]+
IONMODE: positive
CHARGE: 1
PARENTMASS: 330.146723804
NUM PEAKS: 127
59.0426     0.0010214453701120102
81.0357     0.0067216088013712285
95.0441     0.009980268665045642
105.0686    0.033069916689919085
121.0645    0.10202495316299279
133.0657    0.05385259297644198
134.0662    0.006851157970263483
135.0804    0.032073384621517126
147.0779    0.024639255391238492
149.0792    0.006527285048032846
155.0849    0.021993462749631282
156.0912    0.01518216606210388
157.1012    0.03263144257982222
159.0787    0.043304301032407226
161.0649    0.041480647347231635
162.0686    0.005361342528002551
171.1097    0.040902658747558496
172.0989    0.00801211782995177
173.0976    0.09440148283971779
174.0987    0.01054330928369275
175.1114    0.023597879379758442
179.0721    0.0653426077251166
180.0741    0.005436082433132698
181.0972    0.04601985091880257
182.5503    0.0009616534460078926
183.0832    0.0247438912584207
183.5434    0.0009616534460078926
184.0914    0.1741738749152948
185.0981    0.0874955156056922
186.0999    0.009681309044525055
189.1205    0.010672858452585005
191.0871    0.006352891936062503
197.0983    0.036966357077370754
199.1121    1.0
199.6512    0.004693666042173238
199.8548    0.006103758918962012
200.1112    0.17425858014110895
200.244     0.005426117112448679
200.4219    0.004648822099095149
200.6289    0.004514290269860884
201.1173    0.03723542073583928
201.4718    0.002391676964164707
201.6591    0.003104197393072109
203.0797    0.009726152987603142
204.5457    0.0007772950133535298
205.0872    0.012925020927173436
205.5533    0.0008968788615617651
206.1031    0.005002590983377846
207.1163    0.01675668673017898
208.0888    0.00513712281261211
209.0974    0.03958723641726791
210.1034    0.012641009287678877
211.1102    0.01668194682504883
213.1383    0.01131063897636226
217.1217    0.7335622035317096
217.7316    0.005186949416032208
217.7705    0.005231793359110296
218.1278    0.12656455534739108
218.267     0.003931319009845737
218.3385    0.0038814924064256395
218.5244    0.0036821859927452473
218.6394    0.0037120819547973058
218.737     0.0037419779168493643
218.8424    0.003139076015466178
219.1149    0.017788097420975008
219.3236    0.00205783872125005
219.5501    0.0025062781520309324
221.1318    0.021435404791326187
223.1148    0.044888787021166346
225.1287    0.08468529517279866
226.1254    0.011440188145254515
227.1092    0.04744987443695938
237.1284    0.010702754414637064
239.1427    0.05703651293498625
240.1441    0.008061944433371868
243.135     0.02846593853390202
245.1183    0.14010244349663173
246.1205    0.02102682664328138
246.4616    0.0014997807629449518
247.1149    0.0024913301710049033
249.1272    0.07416689919081597
250.1337    0.014549368198668634
251.1462    0.02642803045402001
252.1347    0.0075238171164348075
253.1104    0.024699047315342608
254.107     0.0051022441902180415
257.1537    0.01158966795551481
267.1387    0.43324231673775265
267.9701    0.0032785905050424524
268.1451    0.10050025909833779
268.3471    0.0029945788655478937
268.6438    0.002232231833220393
268.8492    0.003134093355124168
268.9775    0.00385159644437358
269.151     0.037424761828835654
269.4382    0.00231693705903456
270.1504    0.0074739905130147095
271.133     0.013796986487025152
277.1187    0.008629967712360983
285.1497    0.12608621995455815
286.1543    0.02673695539522462
287.1508    0.008345956072866426
287.1669    0.005097261529876032
295.1344    0.05312014190616654
296.1345    0.013293737792482163
312.1119    0.0035775501255630405
312.1374    0.0034579662773548056
312.6585    0.0008968788615617651
313.1429    0.4262117829951768
313.6614    0.0017389484593614223
313.9558    0.002860047036313629
314.1487    0.10312113843823495
314.3227    0.0025860007175030893
314.5293    0.0032437118826483835
314.6514    0.0025610874157930403
314.9564    0.00308924941204608
315.1504    0.02387690835891099
315.4162    0.0013204049906325986
315.6242    0.0015545900267070595
315.8651    0.0017289831386774028
316.1501    0.0038964403874516686
316.4574    0.0014997807629449518
316.6293    0.0013752142543947065
322.0675    0.005460995734842747
323.081     0.007877586000717503
326.6142    0.0005381273169370591
331.1543    0.616828437039104


