PRECURSORMZ: 301.14343512
COMPOUNDNAME: challenge-178
FORMULA: C18H20O4
SMILES: C/C=C/C#CC#C/C=C/C=C/C(CCOC(=O)C)OC(=O)C
INCHIKEY: PGHCYQUSYHWJAI-NOPLWHKLSA-N
PRECURSORTYPE: [M+H]+
IONMODE: positive
CHARGE: 1
PARENTMASS: 300.13615912
NUM PEAKS: 23
65.0322     0.016944718944370166
121.028     0.08284892169970355
122.0184    0.007731209672731501
149.0225    0.6234668371795616
149.4641    0.0036185549032145556
149.5526    0.004366970877172587
149.7577    0.00541330000581294
149.847     0.005849270476079754
150.0286    0.06025838516537813
150.3355    0.0033497064465500205
151.0401    0.011894727663779572
205.088     0.009133581352089751
206.09      0.003742079869790153
219.9881    0.013224437598093356
221.984     0.011349764575946055
274.0991    0.007040923094809045
276.0575    0.010855664709643668
278.0451    0.006822937859675638
279.181     0.01639975585653665
279.6312    0.0011916526187292914
280.1886    0.004257978259605883
285.1663    0.02115910015694937
301.1401    1.0


