PRECURSORMZ: 917.5104415920002
COMPOUNDNAME: challenge-241
FORMULA: C46H76O18
SMILES: C1C(CC2=CCC3C(C2(C1O)C)CCC1(C3CCC1C(C(CC(=C(C)C)C)OC1OC(C(O)C(O)C1O)CO)C)C)OC1OC(C(O)C(O)C1O)COC1OC(C(O)C(O)C1O)CO
INCHIKEY: HBCGNAJUSBIBGA-UHFFFAOYSA-N
PRECURSORTYPE: [M+H]+
IONMODE: positive
CHARGE: 1
PARENTMASS: 916.5031655920002
NUM PEAKS: 93
85.0172     0.014486432966359417
159.1119    0.017032461868502324
163.0675    0.030469836629812116
199.1348    0.01177538367241095
247.1485    0.01606591385935548
251.1774    0.029255758032956932
253.1952    0.05485749310450506
255.2102    0.082722364977958
265.1609    0.060256017350715486
266.1624    0.013991371790942739
275.15      0.045922817605318376
275.9877    0.01593625498007968
278.9984    0.010384497512906952
283.1718    0.04032391145477263
287.1948    0.020038190433532145
293.2243    0.039322001933096026
311.2372    0.04731370376482237
312.2382    0.012093637285178812
325.1156    0.02530705580046677
329.246     0.023880808128433014
329.2616    0.0025342417312996537
347.258     0.013248780027817725
377.3206    0.3607463636577949
378.3232    0.10644993988542871
395.3315    0.1173884344279686
396.0238    0.005198142341875104
396.3307    0.035597255946627694
402.2503    0.01051415639218275
414.3683    0.010254838633631157
419.2608    0.04489733374195526
431.3613    0.007638086706428723
437.2689    0.040642165067540495
478.2197    0.0035125769112897528
478.7354    0.003665810132252057
485.7057    0.0015559065513095548
486.2145    0.004231594332728259
486.7143    0.001968457530823452
487.7208    0.001968457530823452
488.6902    0.001968457530823452
491.2928    0.010679176783988307
503.3515    0.014663240529008229
509.3007    0.005634267663075509
515.2841    0.00823923241943469
521.3657    0.04183266932270916
533.3117    0.05346660694500107
534.3103    0.01653740069308565
535.3087    0.004455550578750089
539.376     0.06431080412079493
540.3793    0.023574341686508408
551.3245    0.006895494943303709
552.3218    0.003323982177797685
557.3835    1.0
558.388     0.3968033192673095
558.6655    0.007826681439920791
559.001     0.007520214997996181
559.3914    0.09323652137014074
559.6554    0.00709587684763903
560.3892    0.020992951271835734
575.3962    0.16677668026120374
576.3991    0.06603173106391005
593.405     0.43040854334142725
594.4102    0.16918126311322756
595.4128    0.03980527593766944
596.4129    0.009453311016289871
671.3631    0.006624390013908863
695.361     0.021075461467738518
696.3738    0.011256748155307764
697.3713    0.002911431198283788
713.3695    0.007437704802093402
714.3794    0.0031118131026191096
719.4314    0.022548857823145294
720.4356    0.01099743039675617
720.4506    0.01099743039675617
723.296     0.01663169805983168
729.3982    0.0024045828520238574
737.447     0.027581979773214835
738.4527    0.012753718852401048
755.4579    0.25713713194559046
756.4641    0.1110351493434546
756.9594    0.001968457530823452
757.4657    0.03465428227916736
757.8528    0.0018270114807044015
758.1576    0.0018270114807044015
808.3753    0.03121242839293713
809.3775    0.025401353167212808
810.3911    0.0106556024423018
859.4292    0.002263136801904807
860.4462    0.0025342417312996537
891.4516    0.001273014451071454
899.4956    0.0059996699592163895
900.4761    0.0032296848110516516
901.4406    0.00266390061057545
917.5107    0.19439402154694832


