PRECURSORMZ: 741.261138632
COMPOUNDNAME: challenge-053
FORMULA: C34H46O18
SMILES: O([C@@H]1O[C@@H]([C@@H](O)[C@H](O)[C@H]1O)CO)c1c(cc([C@@H]2OC[C@H]3[C@@H]2CO[C@H]3c2cc(c(O[C@@H]3O[C@@H]([C@@H](O)[C@H](O)[C@H]3O)CO)c(c2)OC)OC)cc1OC)OC
INCHIKEY: FFDULTAFAQRACT-UHFFFAOYSA-N
PRECURSORTYPE: [M-H]-
IONMODE: negative
CHARGE: -1
PARENTMASS: 742.268414632
NUM PEAKS: 39
166.0168    0.008184769148476255
181.0494    0.04566471023572429
182.0541    0.005385680684091359
371.1478    0.0047262095799169065
376.0074    0.007620554981571446
402.1296    0.0165307423446396
403.1286    0.004565005532229818
417.1566    1.0
417.3604    0.002865035574802342
417.4942    0.006250320576231196
417.7586    0.003810277490785723
417.9817    0.0060378243315527625
418.1598    0.28117649644984727
418.47      0.009533021183677357
418.6555    0.010199819744564858
418.8384    0.007833051226249882
419.1618    0.057220109472203295
419.4669    0.008111494581345762
419.6921    0.007408058736893011
419.9274    0.006968411334110043
420.1691    0.009430436789694664
420.5356    0.004484403508386275
420.953     0.004440438768107978
421.3727    0.0032827006074461615
579.2075    0.35201102049489646
580.2122    0.11186095418141317
580.5697    0.004491730965099324
580.6521    0.0047188821232038575
580.82      0.0029969297956372325
580.997     0.0037516578370813277
581.2138    0.03257054508950488
581.6182    0.0038615696877770697
581.833     0.003971481538472812
582.2066    0.007180907578788478
582.3446    0.002095652619932148
633.1281    0.012888996358254015
634.1368    0.005099909872282429
635.1281    0.0047262095799169065
741.2616    0.0572347643856294


