PRECURSORMZ: 403.12458558799995
COMPOUNDNAME: challenge-072
FORMULA: C17H24O11
SMILES: C12(C(C(OC=C1C(=O)OC)OC1OC(C(C(C1O)O)O)CO)C(CC2=O)C)O
INCHIKEY: PRZVXHGUJJPSME-UHFFFAOYSA-N
PRECURSORTYPE: [M-H]-
IONMODE: negative
CHARGE: -1
PARENTMASS: 404.13186158799994
NUM PEAKS: 15
68.9845     0.046762963732723685
101.0203    0.1086979112542866
111.0106    0.06068793515535696
139.0367    0.49371297932037833
195.0714    0.09373376285981504
209.0458    0.2696664241920399
223.0606    0.3693234957913333
224.0763    0.059233087394783335
241.0715    1.0
242.0759    0.1548373688039073
242.3673    0.015899407669126054
243.0838    0.03179881533825211
385.1134    0.026914683570612077
386.117     0.0073781565000519585
403.1254    0.08365374623298348


