PRECURSORMZ: 479.29043369599987
COMPOUNDNAME: challenge-163
FORMULA: C29H38N2O4
SMILES: c1(c(cc2c(c1)CCN1C2CC(C(C1)CC)CC1=NCCc2c1cc(c(c2)OC)OC)OC)OC
INCHIKEY: FBRKYRSUSJWLHH-UHFFFAOYSA-N
PRECURSORTYPE: [M+H]+
IONMODE: positive
CHARGE: 1
PARENTMASS: 478.2831576959999
NUM PEAKS: 76
80.0484     0.0010876423289118442
91.0525     0.010549947176898698
105.0689    0.02621529815706069
110.0954    0.05608602828970537
111.0897    0.005551928043197559
121.0649    0.015547966310599837
133.0653    0.03251188519779317
134.0719    0.030743778612513206
146.088     0.0043744130766521895
150.0664    0.17830914720037566
150.7533    0.0011353298509214696
151.2265    0.0010693009742927574
165.0898    0.38905864831553
165.3365    0.0010399548069022187
165.6389    0.002549448292053058
166.0953    0.053085382674022775
166.218     0.001889159525765935
166.4586    0.0022578207536095786
166.5204    0.002063402394647259
166.7159    0.0012655534687169856
166.7426    0.0012508803850217163
167.0956    0.005564766991430919
167.3264    0.0011188226317642917
167.6486    0.0009941014203545017
191.0945    0.07535912372344172
205.9768    0.0023385227139335603
206.1176    1.0
206.2714    0.002289001056462026
206.5815    0.0036169151308839066
206.6083    0.0036976170912078883
206.8304    0.009310071604648433
206.8501    0.009286227843643621
207.1222    0.1315148491606996
207.2696    0.007633671792463904
207.3632    0.005045706655710765
207.5359    0.009942848339006926
207.6571    0.00838750146730837
208.1305    0.023926297100598664
208.3527    0.0025567848339006927
208.4407    0.0017277556051179717
208.7321    0.0016708974057988025
209.5753    0.0013994453574363189
214.1179    0.002690676722620026
235.6456    0.00025861310012912313
235.9667    0.0005649137222678718
236.3452    0.0002604472355910318
236.7523    0.00010821399225261182
238.4488    0.00015223324333842002
238.7662    0.0002402717455100364
239.3499    0.00041451461439136054
239.9781    0.0009409114919591501
240.1433    0.10540226258950582
240.4043    0.0027603738701725555
240.4892    0.0027493690574011036
240.6479    0.04780857495011152
240.8399    0.0023018400046953868
240.9352    0.002008378330789999
241.1519    0.014610723089564504
241.4426    0.0019203398286183825
241.6517    0.0026851743162343
241.8281    0.0014324597957506748
241.8554    0.001309572719802794
242.1236    0.006668916539499942
242.5562    0.0014691425049888484
242.7361    0.0007831758422350042
243.7273    0.0007116445592205658
244.1437    0.014025633877215636
244.4058    0.000530065148491607
244.7283    0.0005429040967249677
245.5408    0.0002604472355910318
272.165     0.09950918535039323
273.1707    0.020324055053410024
298.1809    0.0020377244981805375
315.2085    0.009519163047306023
316.2093    0.002351361662166921
479.2895    0.43906635168447


