PRECURSORMZ: 176.102967276
COMPOUNDNAME: challenge-019
FORMULA: C6H13N3O3
SMILES: C(CC(C(=O)O)O)CNC(=N)N	
INCHIKEY: BMFMQGXDDJALKQ-UHFFFAOYSA-N
PRECURSORTYPE: [M+H]+
IONMODE: positive
CHARGE: 1
PARENTMASS: 175.095691276
NUM PEAKS: 8
60.0583     0.018000000000000002
70.0662     0.024
71.0501     0.059000000000000004
117.0566    0.021
130.0988    0.251
134.0833    0.047
159.0773    0.018000000000000002
176.1035    1.0


