PRECURSORMZ: 659.3284303439998
COMPOUNDNAME: challenge-127
FORMULA: C32H52O14
SMILES: OC(=O)/C(=C/C(C/C(=C/CC/C(=C/CCC(C=C)(C)O[C@@H]1O[C@@H]([C@H]([C@@H]([C@H]1O[C@@H]1O[C@@H]([C@H]([C@@H]([C@H]1O)O)O)CO)O)O)CO)/C)/C)O)/C
INCHIKEY: ISQUNAAALVXWGI-DFTZOVBQSA-N
PRECURSORTYPE: [M-H]-
IONMODE: negative
CHARGE: -1
PARENTMASS: 660.3357063439998
NUM PEAKS: 25
98.9984     0.0016098475787701052
111.0017    0.002097825150938161
114.0178    0.0016050634849253203
128.9973    0.0025523140661927227
141.0099    0.001832307942552601
159.0212    0.004198042348798715
239.1198    0.00023681264531685056
261.0637    0.002090649010170984
275.2239    0.002148058136308402
301.2196    0.0019590864294394003
319.2266    0.017693971084936803
320.2306    0.003910996718111623
451.1823    0.0007080458890281593
452.1859    0.00020571603532574897
479.267     0.004808014314008784
497.2756    0.018607733009290712
498.279     0.005001770114722571
499.2799    0.0015596145933998644
501.2453    0.0013012735257814819
519.247     0.0018657965994660953
555.2758    0.0009544267220345795
641.3188    0.010934046482255797
642.3215    0.004111928659592587
643.3326    0.001430444059590673
659.3282    1.0


