PRECURSORMZ: 415.12348752399987
COMPOUNDNAME: challenge-154
FORMULA: C18H22O11
SMILES: [C@H]1(OC=C2[C@@H]3[C@H]1C(=C[C@@H]3OC2=O)COC(=O)C)O[C@@H]1O[C@@H]([C@H]([C@@H]([C@H]1O)O)O)CO
INCHIKEY: IBIPGYWNOBGEMH-UHFFFAOYSA-N
PRECURSORTYPE: [M+H]+
IONMODE: positive
CHARGE: 1
PARENTMASS: 414.1162115239999
NUM PEAKS: 30
79.0572     0.009340772886960117
91.0518     0.23002686505476336
92.0308     0.017792932424054556
92.0658     0.014114486464145483
119.0491    0.2410002066542674
120.0503    0.024860508369497828
123.0372    0.01576772060343046
131.0405    0.05959909072122339
147.0441    0.4218226906385617
148.0474    0.0482744368671213
149.061     0.02273196941516842
165.0577    0.031204794379003926
175.0399    1.0
176.0423    0.12002479851208926
193.0505    0.23874767513949163
194.058     0.033829303575118826
235.0629    0.1976028104980368
236.0623    0.027113039884273608
253.072     0.0600330646827857
254.0657    0.012130605497003514
254.0855    0.011841289522628641
305.9846    0.025294482331060138
306.9849    0.01830956809258111
324.0032    0.02016945649927671
337.0874    0.00938210374044224
348.0216    0.0042364124819177515
379.101     0.008183508989460632
389.9994    0.020541434180615832
397.1078    0.011944616656333952
415.1214    0.04672452986154164


