PRECURSORMZ: 489.16136501999983
COMPOUNDNAME: challenge-054
FORMULA: C21H30O13
SMILES: [C@@]12([C@H]([C@@H](OC=C1)O[C@H]1[C@@H]([C@H]([C@@H]([C@H](O1)CO)O)O)O)C(=CC2=O)C)O[C@H]1[C@@H]([C@@H]([C@H]([C@@H](O1)C)O)O)O
INCHIKEY: WDMQLCVSWBENIY-UHFFFAOYSA-N
PRECURSORTYPE: [M-H]-
IONMODE: negative
CHARGE: -1
PARENTMASS: 490.1686410199998
NUM PEAKS: 31
59.0085     0.055594162612925636
71.0106     0.042104402567142214
89.0225     0.08326860973715405
101.0251    0.033029473081796996
119.0372    0.05371377181866492
135.0438    0.2892122797694477
136.0464    0.04406654948289253
149.0643    0.03396966847892736
159.0444    0.10215427380125086
161.0402    0.028900788946572373
163.0392    1.0
164.0377    0.15881126599354126
165.0501    0.02808322773167641
177.0543    0.08715202550790989
179.0556    0.10763193394105383
180.0584    0.00776683154151167
181.066     0.006785758083636512
187.0331    0.0992519314883702
205.0493    0.08984997751706658
217.0527    0.03155786289498426
235.0668    0.025303519601030125
309.0986    0.015451906961533743
310.1053    0.004864489228630993
325.0934    0.03204839962392184
326.0972    0.0077259534807668714
327.1078    0.058046846257613534
328.1127    0.010178637125454767
343.1109    0.004823611167886196
422.0265    0.023177860442300618
429.136     0.0029023423128806767
489.1592    0.05731104116420716


