PRECURSORMZ: 271.06009942
COMPOUNDNAME: challenge-005
FORMULA: C15H10O5
SMILES: c1cc(c(cc1/C=C\1/C(=O)c2ccc(cc2O1)O)O)O	
INCHIKEY: RGNXWPVNPFAADO-NSIKDUERSA-N
PRECURSORTYPE: [M+H]+
IONMODE: positive
CHARGE: 1
PARENTMASS: 270.05282342
NUM PEAKS: 16
109.0298    0.051
115.0556    0.040999999999999995
137.0235    0.379
141.0684    0.154
161.0254    0.09300000000000001
169.0633    0.257
181.0659    0.062
187.0739    0.068
197.0626    0.505
200.0459    0.051
201.0532    0.134
215.0689    0.7040000000000001
225.0554    1.0
243.0632    0.051
253.0516    0.278
271.0608    0.299


