PRECURSORMZ: 551.1759170199998
COMPOUNDNAME: challenge-239
FORMULA: C26H30O13
SMILES: c1(ccc2c(c1)OC(CC2=O)c1ccc(cc1)OC1C(C(C(C(O1)CO)O)O)OC1C(C(CO1)(O)CO)O)O
INCHIKEY: FTVKHUHJWDMWIR-UHFFFAOYSA-N
PRECURSORTYPE: [M+H]+
IONMODE: positive
CHARGE: 1
PARENTMASS: 550.1686410199998
NUM PEAKS: 23
137.0243    0.19582412335086757
147.0447    0.10025338683466702
239.0731    0.03825448047997165
240.0716    0.00651566146286612
242.0606    0.02011691222341171
257.0815    1.0
257.5773    0.0031037961814835064
257.8227    0.006269206182946835
257.8472    0.006192188907972058
258.0875    0.18610454324905076
258.1968    0.00721651866513659
258.3563    0.004782772775933642
258.5352    0.00505233323834536
258.6503    0.004898298688395807
258.7311    0.005036929783350406
259.0892    0.026848222056207207
259.3248    0.0038200568387489315
259.622     0.003188515183955761
319.005     0.00761700849500543
349.0172    0.0030113754515137744
419.1351    0.04350705863325144
420.1375    0.009865912924268912
551.1779    0.03314823514914395


