PRECURSORMZ: 301.07066410399995
COMPOUNDNAME: challenge-156
FORMULA: C16H12O6
SMILES: c1(c(c(c2c(c1)oc(cc2=O)c1ccc(cc1)OC)O)O)O
INCHIKEY: XVMMEYCPXZYLAI-UHFFFAOYSA-N
PRECURSORTYPE: [M+H]+
IONMODE: positive
CHARGE: 1
PARENTMASS: 300.06338810399996
NUM PEAKS: 18
190.5077    0.0007109827990638727
190.9923    0.0032936816789966524
191.5003    0.0006813585157695447
198.0023    0.0007594588990000458
198.5094    0.00045244359940428263
258.0542    0.011685433201280846
282.056     0.0085614178720608
283.0607    0.005811745759014535
285.0444    0.014639782180724288
286.0446    0.6915142587061729
286.6536    0.0029839732627377686
287.0538    0.15195102836659782
287.2489    0.0037676702117059014
288.3121    0.0025584608299646936
288.5453    0.0026257887465427118
288.8352    0.0020198374973405472
290.3397    0.0011795850984468797
301.0709    1.0


