PRECURSORMZ: 341.17473524799993
COMPOUNDNAME: challenge-194
FORMULA: C21H24O4
SMILES: c1(cc(cc2c1OCO2)CCc1ccc(cc1)OCC=C(C)C)OC
INCHIKEY: UOUFYEQUUCSLPP-UHFFFAOYSA-N
PRECURSORTYPE: [M+H]+
IONMODE: positive
CHARGE: 1
PARENTMASS: 340.16745924799994
NUM PEAKS: 88
69.0611     0.02370484012797246
70.0784     0.004808321951767105
77.024      0.03135699451813879
93.0703     0.038840764092873584
107.0503    0.09511871129487923
119.0532    0.05418249172107992
121.0648    0.5224980822840465
131.0527    0.035697580871484974
133.0668    0.0907968343654699
145.0704    0.0363711201332111
149.0734    0.043331025837714456
165.056     0.6704334973526166
166.0606    0.11839323467230443
167.079     0.07328481356059047
175.1145    0.10018896518176205
176.1006    0.019158450111321074
179.0705    1.0
180.0752    0.1217048027091246
182.0818    0.021403580983741514
187.1092    0.0643978371905929
189.129     0.2198918595296451
190.1232    0.033153099216075135
196.0856    0.03638982955714794
199.1022    0.033153099216075135
201.121     0.0855394862392187
202.1357    0.017044285206458492
209.0948    0.04146008344403076
211.0819    0.03977623528971543
213.0905    0.06881326123968644
223.0804    0.09362195737993227
227.1088    0.198787629328893
233.1118    0.030402813897360104
235.1231    0.01754943965275309
241.0948    0.041965237890325365
243.1695    0.030047334842560197
243.1938    0.02828864899249752
245.1381    0.02310613856199368
253.0962    0.06643716439970815
254.0868    0.020093921308162923
255.1062    0.23738517091058767
256.1002    0.042171041553630564
257.1729    0.05023480327040731
257.1901    0.044715523209040396
269.1501    0.022900334898688472
271.098     0.31572152893412414
272.1062    0.22509307938408576
272.6795    0.004639937136335572
273.1126    0.8242249621134166
273.3323    0.00701603397631387
273.6679    0.007726992085913675
273.8549    0.008905685793934406
274.1211    0.1532676008905686
274.3522    0.0069037774326928475
274.5175    0.008306984227955621
274.707     0.006061853355535184
274.9503    0.013938520832943554
275.1285    0.02667963853392954
275.4556    0.004808321951767105
283.0996    0.2810529663791652
284.1207    0.20247338584444988
285.1134    0.9533386967015286
285.6965    0.006978615128440196
285.8606    0.008512787891260828
286.1197    0.19652378903253573
286.4282    0.007801829781661024
286.6214    0.006136691051282531
286.8734    0.008176018260397764
287.1165    0.05012254672678628
287.3499    0.005519280061366911
287.7708    0.006286366442777228
295.1041    0.09328518774906921
297.1152    0.26307320997586486
298.1186    0.05865404404198395
299.1514    0.04686710696177665
309.1218    0.14993732342981161
309.1577    0.15047989672397988
310.1223    0.026342868903066478
310.1548    0.02757769088289772
311.1752    0.03178731126868604
317.0452    0.0418342719227675
319.0273    0.019644895133678834
327.0276    0.04737226140807125
327.0781    0.051918651424722635
329.0351    0.09489419820763718
330.044     0.0643978371905929
331.0335    0.050758667140638744
332.0364    0.029747984059570808
341.1756    0.44129918239817395


