PRECURSORMZ: 279.122699676
COMPOUNDNAME: challenge-193
FORMULA: C15H18O5
SMILES: C12=C(C[C@@H]([C@@H]3[C@@H]([C@H]1C(=CC2=O)CO)OC(=O)[C@@H]3C)O)C
INCHIKEY: ZHZZKRDEPZMPLJ-UHFFFAOYSA-N
PRECURSORTYPE: [M+H]+
IONMODE: positive
CHARGE: 1
PARENTMASS: 278.11542367600003
NUM PEAKS: 38
105.0691    0.03911226401498775
131.0852    0.18976797809482635
143.0836    0.07620694624585675
145.0765    0.09326992362011818
147.0723    0.04582792909641158
149.0968    0.03801700533218043
155.0799    0.051707738867271945
156.0942    0.019224672142960083
157.0913    0.05012249603689293
159.0794    0.40489984147571695
160.0836    0.061565067012537826
161.0815    0.033607148004035164
169.099     0.2108084738434933
170.094     0.03948695777489552
171.1016    0.041475716962098286
173.0876    0.060671566508142385
174.0616    0.03522121343133016
177.0772    0.04868136619109382
185.0932    0.08200028822596916
186.0755    0.025969159821299898
187.0791    0.2802132872171783
187.1044    0.2861795647787866
188.0974    0.055973483210837296
197.0963    0.1788730364605851
198.0971    0.04378152471537686
199.1041    0.03199308257674016
205.107     0.04378152471537686
215.1073    0.6038622279867416
216.1105    0.10664360858913388
225.09      0.041446894365182306
231.0983    0.02625738579045972
233.1158    0.13699380314166307
234.1079    0.023000432338953738
243.102     0.16284767257529903
244.1021    0.02706441850410722
261.1135    0.16751693327568815
262.1122    0.03942931258106356
279.122     1.0


