PRECURSORMZ: 281.139447804
COMPOUNDNAME: challenge-078
FORMULA: C15H22O5
SMILES: C12=C(C(=O)OC1)CC(C1C(C2O)CC(C1)(C)CO)(C)O
INCHIKEY: DBKIEMOKQWYZOA-UHFFFAOYSA-N
PRECURSORTYPE: [M-H]-
IONMODE: negative
CHARGE: -1
PARENTMASS: 282.146723804
NUM PEAKS: 7
189.12      0.09735493698933664
195.1344    0.07852098047361862
219.1361    0.2812629829663481
237.1496    0.7875640493006509
238.153     0.11771222822323778
263.1246    0.16632045423071595
281.1394    1.0


