PRECURSORMZ: 265.14343512
COMPOUNDNAME: challenge-203
FORMULA: C15H20O4
SMILES: C1C(=O)C(=C2C(C1)(CCC1(C2OC(=O)C1C)O)C)C
INCHIKEY: KLPWVMFJDOIILT-UHFFFAOYSA-N
PRECURSORTYPE: [M+H]+
IONMODE: positive
CHARGE: 1
PARENTMASS: 264.13615912
NUM PEAKS: 32
107.0809    0.016724175448413068
111.0791    0.01262084615623737
121.0986    0.02787362574735511
123.0801    0.1415234128094335
124.0759    0.013688126249909331
130.0779    0.007502046483674759
145.1026    0.12528624866589985
149.0974    0.04252541266436631
157.102     0.0112116219548841
163.1102    0.04701213383485135
173.0993    0.10172319106386064
174.0866    0.04026650916513828
174.1019    0.04124053177489716
186.1099    0.008662584061259804
191.1054    0.12480959930367744
192.1095    0.033147854559772864
193.1126    0.01091112561783083
201.1285    0.17877459666138207
202.0998    0.03504409006600557
202.1299    0.035064813951319586
203.1426    0.06025469655050929
204.1421    0.00762638979555887
219.1396    0.13300589594537182
220.1421    0.023770296455179415
221.1454    0.01572942895334017
229.1228    0.056700550219155085
230.1194    0.009636606671018682
247.1338    0.24559876485643525
248.1367    0.04531277523910182
249.1452    0.02888909612774203
250.1499    0.00514988550053364
265.144     1.0


