PRECURSORMZ: 367.2115146799999
COMPOUNDNAME: challenge-230
FORMULA: C20H30O6
SMILES: C1(C(O)C2(C3(C(C1)C(C(CC3)C)(C)CCC1=CC(OC1=O)O)C)CO2)O
INCHIKEY: IJOCZMKYIFYFQK-UHFFFAOYSA-N
PRECURSORTYPE: [M+H]+
IONMODE: positive
CHARGE: 1
PARENTMASS: 366.2042386799999
NUM PEAKS: 88
91.0489     0.09453957996768983
93.0675     0.0902746365105008
95.0768     0.08768982229402261
105.067     0.1361550888529887
107.0834    0.13434571890145397
109.0843    0.07592891760904685
119.0838    0.2045880452342488
121.0979    0.16090468497576738
123.0775    0.21654281098546044
129.0688    0.06927302100161552
131.0669    0.12859450726979
133.0977    0.18739903069466882
135.0956    0.08652665589660744
142.0771    0.05693053311793214
143.0825    0.1408723747980614
145.1023    0.2319870759289176
147.1059    0.13667205169628432
155.0729    0.13008077544426494
157.0966    0.23793214862681744
159.1175    0.18164781906300487
161.1154    0.0888529886914378
169.0968    0.1667205169628433
171.1132    0.19903069466882067
173.1224    0.19825525040387723
175.1337    0.13240710823909532
185.1309    0.20025848142164782
187.1456    0.19192245557350565
188.1552    0.03676898222940226
189.1574    0.1255573505654281
195.1123    0.11134087237479807
199.1486    0.3625201938610662
200.1487    0.07179321486268174
201.1686    0.059321486268174475
202.0511    0.016025848142164782
203.1289    0.13466882067851374
209.1273    0.1030048465266559
211.1409    0.16536348949919225
213.1584    0.10888529886914378
217.1566    0.07547657512116317
221.1586    0.020226171243941844
222.5757    0.0023263327948303716
223.1419    0.10210016155088852
223.5913    0.004717285945072698
225.1603    0.1104361873990307
227.1761    0.1117285945072698
229.1639    0.0752827140549273
232.578     0.003166397415185784
237.1584    0.1524394184168013
239.1776    0.27256865912762523
240.1808    0.07567043618739902
241.1613    0.08911147011308562
249.1562    0.1987075928917609
255.1744    0.3567043618739903
256.1758    0.06875605815831988
257.1822    0.175702746365105
258.1755    0.05143780290791599
259.1722    0.08568659127625201
267.1746    0.2906623586429725
268.1766    0.05460420032310178
269.1836    0.14933764135702746
270.1785    0.045298869143780285
271.1701    0.20077544426494345
272.1738    0.0474313408723748
273.1823    0.13221324717285945
283.1716    0.34306946688206785
284.1726    0.08710823909531504
285.1854    0.641421647819063
286.1887    0.13977382875605818
287.1726    0.09137318255250404
289.1806    0.05292407108239096
290.1817    0.014281098546042004
295.1703    0.38151857835218095
296.1776    0.09337641357027464
301.1799    0.561421647819063
302.185     0.11825525040387722
303.1934    0.31043618739903067
304.1943    0.054345718901453954
313.1798    1.0
314.1842    0.24103392568659127
319.1902    0.5063004846526656
320.1923    0.09680129240710825
328.1078    0.1295638126009693
331.1903    0.6745072697899838
332.1944    0.17247172859450727
349.2002    0.4106623586429725
350.2039    0.08006462035541195
351.2058    0.020613893376413568
367.2148    0.07709208400646203


