PRECURSORMZ: 287.09139954799997
COMPOUNDNAME: challenge-134
FORMULA: C16H14O5
SMILES: c1c(c(c2c(c1)[C@H]1[C@@H](CO2)c2c(O1)cc(cc2)O)O)OC
INCHIKEY: QDFJNOVWEADTGJ-UHFFFAOYSA-N
PRECURSORTYPE: [M+H]+
IONMODE: positive
CHARGE: 1
PARENTMASS: 286.084123548
NUM PEAKS: 12
123.0441    0.7792339516882424
124.046     0.06381956492726544
147.0449    0.16201788335780062
183.5081    0.0061390631255838785
191.0165    0.00971573468570666
191.5201    0.0016281863072200719
226.0569    0.026638195649272653
248.0009    0.015641265180835445
255.068     0.16316562124649672
263.9725    0.06552782597090617
270.0529    0.04647003870278927
287.0914    1.0


