PRECURSORMZ: 370.1860282039999
COMPOUNDNAME: challenge-027
FORMULA: C18H27NO7
SMILES: CC(C)[C@H]1C(=O)O[C@@H]2CCN3CC=C(COC(=O)[C@@](CO)([C@]1(C)O)O)[C@H]23	
INCHIKEY: AAVMGRPGPSSZBQ-FOOXYVKASA-N
PRECURSORTYPE: [M+H]+
IONMODE: positive
CHARGE: 1
PARENTMASS: 369.1787522039999
NUM PEAKS: 17
94.067      0.01
120.0827    0.131
121.0878    0.063
122.0946    0.055999999999999994
138.0912    0.016
180.1044    0.073
198.1133    0.012
208.1108    0.021
222.151     0.315
226.109     0.062
250.1468    0.019
266.1762    0.106
282.1728    0.048
324.184     0.124
342.201     0.021
352.1774    0.027000000000000003
370.1882    1.0


