PRECURSORMZ: 799.484930984
COMPOUNDNAME: challenge-068
FORMULA: C42H72O14
SMILES: O([C@H]1[C@@H]([C@H]([C@@H]([C@H](O1)CO)O)O)O)[C@@H]1[C@H]([C@@H]([C@H](O[C@H]1O[C@@H]1[C@H]2C([C@H](CC[C@@]2(C2[C@@](C1)([C@]1([C@H]([C@@H](C2)O)[C@H](CC1)[C@@](CCC=C(C)C)(C)O)C)C)C)O)(C)C)CO)O)O
INCHIKEY: UZIOUZHBUYLDHW-UHFFFAOYSA-N
PRECURSORTYPE: [M-H]-
IONMODE: negative
CHARGE: -1
PARENTMASS: 800.4922069840001
NUM PEAKS: 37
161.0139    0.005641993643215035
475.3809    0.018418021068994712
476.3893    0.004156893225443796
637.4295    0.042582131604880016
638.4313    0.015357603852933423
639.4377    0.005412982831128815
773.4366    0.018792766034226707
774.4373    0.007626754014628934
799.4857    1.0
799.8731    0.005260308956404669
800.1197    0.0031228747102666245
800.4897    0.47135976904606586
800.7506    0.004857805104859193
801.0175    0.008327665894044331
801.1226    0.005600355313744813
801.235     0.008126413968271592
801.4947    0.15495010340185153
801.9478    0.009937681300226235
802.248     0.008744049188746548
802.4965    0.04426154422684562
802.8277    0.008563616427708922
803.0811    0.008417882274563145
803.323     0.00577384835320407
803.5004    0.014108453968826772
803.7848    0.006051437216338881
804.0063    0.004788407889075491
804.2284    0.006398423295257395
804.6339    0.004830046218545712
804.8266    0.004420602645421866
805.0602    0.003678052436536246
805.3513    0.004212410998070758
819.4388    0.0006662132715235465
835.4624    0.011193770905911256
836.4637    0.006009798886868659
837.4512    0.0050174187011617095
837.47      0.005225610348512818
845.4907    0.014767727518771949


