PRECURSORMZ: 354.13359870799997
COMPOUNDNAME: challenge-215
FORMULA: C20H19NO5
SMILES: C1(=O)C2(Cc3c1c1c(cc3)OCO1)c1cc(c(cc1CCN2C)OC)O
INCHIKEY: AHNUBWYOIHCGFN-UHFFFAOYSA-N
PRECURSORTYPE: [M+H]+
IONMODE: positive
CHARGE: 1
PARENTMASS: 353.126322708
NUM PEAKS: 32
119.0304    0.001556195569241767
179.0941    0.0507097049139762
261.0552    0.048325921241657105
265.0864    0.03796594791143982
280.073     0.016797838922760735
292.0766    0.01641016476151853
293.0813    0.0771320360454486
294.3325    0.0006846160719809187
294.8315    0.0007945945574397008
295.0961    0.12259714193410913
297.076     0.054065423451537295
297.5832    0.0007739735914161792
305.0814    0.09035832365293539
305.8669    0.0007313569283009012
306.1044    0.0740402658729886
307.1096    0.018941044658138752
311.0907    0.09126152196476564
312.0968    0.018633104898854162
320.0923    0.0074139246509901495
323.0894    0.16116522205343578
323.7817    0.0007533526253926576
324.0947    0.03974484991373563
324.5464    0.001113532165270169
325.6622    0.0006694940302303362
326.12      0.0033570932686293243
336.1217    0.15083136861351498
337.1258    0.03867943333585367
337.5239    0.0008055924059855791
338.1251    0.008641559494923805
347.6331    0.00036705319521868534
348.569     0.00042204243794807637
354.1326    1.0


