PRECURSORMZ: 333.20713344
COMPOUNDNAME: challenge-100
FORMULA: C20H30O4
SMILES: C1CC(C2C(C1O)(C1C(CC2)C(C2=CC(=O)OC2(C1)O)C)C)(C)C
INCHIKEY: PUFYSEQCTZERQM-UHFFFAOYSA-N
PRECURSORTYPE: [M-H]-
IONMODE: negative
CHARGE: -1
PARENTMASS: 334.21440944
NUM PEAKS: 30
61.9924     0.0013307782391142342
83.9916     0.0008202433146540461
116.9285    0.007290245153547614
123.0797    0.0028527046253012402
133.0644    0.005047278921440531
135.0769    0.003832641328648994
149.0959    0.010174404537227916
151.098     0.0018243759859856957
165.1218    0.006298210466207912
231.1678    0.0020493984882359205
256.1831    0.01945113866225332
273.1834    0.017183976462162347
274.191     0.0097630730815017
275.1945    0.002032461310647194
287.2003    0.2118695740541796
288.433     0.00230345615206682
288.8634    0.0030704683371562966
289.2174    0.5381643003009979
289.7414    0.002922872932454536
289.9551    0.005625562556255626
290.2186    0.13631282483087018
290.432     0.008156460807371061
290.7305    0.008045159354645143
291.2153    0.021486019569698908
291.4658    0.0036656891495601175
291.7419    0.0027801167213495548
292.2163    0.0031140210795273077
292.3322    0.0020397201010423625
292.7385    0.0017832428404130738
333.2065    1.0


