PRECURSORMZ: 288.123034024
COMPOUNDNAME: challenge-140
FORMULA: C16H17NO4
SMILES: c12c(cc3c(c1)CN1C4C(=CC(C(C4)O)O)C3C1)OCO2
INCHIKEY: JKZMYBLUKAMPKM-UHFFFAOYSA-N
PRECURSORTYPE: [M+H]+
IONMODE: positive
CHARGE: 1
PARENTMASS: 287.115758024
NUM PEAKS: 20
114.0903    0.000785166279496271
146.0609    0.002819721237315075
153.0708    0.005803735175449322
161.0543    0.006644302481966011
173.0599    0.009423905734197335
174.0576    0.014954456535028731
183.0813    0.015126390756816236
211.0749    0.0337678811590659
212.0785    0.01644837388433794
213.0914    0.03643668235725639
226.0885    0.02238201491624893
227.0793    0.014807357256388312
240.1024    0.00760904450421812
241.0879    0.05060979337327302
244.1001    0.023247417165912707
253.0964    0.010902540041569875
254.095     0.002042196478787138
270.1148    0.09756885010392469
271.1146    0.02048309695561805
288.1228    1.0


