PRECURSORMZ: 280.15433460409
COMPOUNDNAME: challenge-011
FORMULA: C15H22NO4+
SMILES: C[N+](C)(C)CCOC(=O)/C=C/c1ccc(c(c1)O)OC	
INCHIKEY: UHJZITVWXGMYKV-SOFGYWHQSA-O
PRECURSORTYPE: [M]+
IONMODE: positive
CHARGE: 1
PARENTMASS: 279.14705860409003
NUM PEAKS: 12
89.0391     0.076
106.0428    0.01
117.0358    0.07400000000000001
134.0378    0.06
145.0285    0.057
149.0614    0.07200000000000001
162.0318    0.012
163.0414    0.01
177.0565    0.268
206.0586    0.071
221.0826    1.0
280.1552    0.243


