PRECURSORMZ: 584.1684277559998
COMPOUNDNAME: challenge-115
FORMULA: C25H33Cl2N5O7
SMILES: C12N(CC(C1Cl)Cl)C(=O)C(NC(=O)CC(NC(=O)C(NC(=O)C(NC2=O)C(C)O)CO)c1ccccc1)CC
INCHIKEY: DQILVZOWLYBPKT-UHFFFAOYSA-N
PRECURSORTYPE: [M-H]-
IONMODE: negative
CHARGE: -1
PARENTMASS: 585.1757037559998
NUM PEAKS: 152
95.0173     0.0038677585913415163
102.0557    0.005910389045448527
103.0511    0.003598244850869063
105.0412    0.0035367768047963985
109.0428    0.00629811056682995
121.0381    0.007404535396137915
131.05      0.005428101299339927
139.051     0.019896733682597922
144.0628    0.002151381612543264
149.035     0.04294252264861082
150.0372    0.006203544342102774
156.0429    0.007536928110755963
160.1111    0.0038819435250505925
166.0634    0.006633820664611428
175.0486    0.008648081251300286
176.0484    0.0026431259811245814
177.0657    0.006997900629811056
178.062     0.002983564390142417
186.0879    0.0025296465114519697
188.1076    0.030180810621678357
189.1063    0.005768539708357763
193.0715    0.002151381612543264
203.0769    0.002307415883343105
205.0734    0.007319425793883457
214.0826    0.00605696669377565
215.0862    0.002803888563160781
217.0767    0.007522743177046885
218.0724    0.003777920677850699
223.0841    0.0356420100996728
224.0849    0.00473776785883154
231.0915    0.011177727762752256
232.0982    0.083478334877915
233.0985    0.015026573109148336
235.0818    0.009716679590717378
249.107     0.03050233578575076
250.1041    0.004156185576759405
253.0971    0.006378491857848051
260.1016    0.002652582603597299
261.0979    0.002652582603597299
275.0994    0.005569950636430692
279.1084    0.011130444650388666
289.1191    0.010260435382898643
290.1222    0.0030119342575605696
306.1474    0.007844268341119285
307.1455    0.002156109923779623
313.1235    0.00309231554857867
318.1452    0.02058706712310631
319.1443    0.0040852609082140225
320.1432    0.002099370188943317
334.145     0.001914966050725323
336.1573    0.0280057874529533
337.1533    0.0057496264634123275
338.1517    0.0035604183609781927
342.1483    0.012099748453842226
343.1504    0.0032436215081421515
345.1461    0.006236642520757286
346.1452    0.002799160251924423
371.1708    0.0065014279499933806
372.1753    0.002203393036143211
375.1687    0.006780398312938551
379.1444    0.00309231554857867
389.1817    0.0350226013277098
390.1857    0.008265088041155222
394.1842    0.0034753087587237343
401.1832    0.012373990505551036
402.1797    0.0033050895542148166
411.1647    0.005688158417339662
415.1626    0.004246023490250222
419.1927    0.037060503470580444
420.1951    0.010052389688498855
421.1818    0.002841715053051652
439.1721    0.0025343748226883287
445.1731    0.0038866718362869515
450.1729    0.005357176630794545
468.1906    0.11303028010515764
469.186     0.03106973313411382
470.1979    0.007083010232065516
482.2051    0.11194749683203147
483.2056    0.03203903693756738
484.2059    0.007229587880392639
494.2053    0.021092996425396707
495.2083    0.008231989862500708
504.1646    0.005409188054394493
505.1803    0.0024256236642520757
511.9872    0.002094641877706958
512.2158    1.0
512.5102    0.007858453274828361
512.6187    0.003588788228396346
512.8557    0.005082934579085733
513.0469    0.006004955270175704
513.2177    0.2979025211355512
513.4224    0.012671874113441643
513.5089    0.012827908384241485
513.7192    0.00931477313562688
513.9782    0.01107370491555236
514.0749    0.011012236869479696
514.2229    0.07640005295708584
514.5872    0.010109129423335162
514.6622    0.009768691014317326
514.9069    0.009182380421008832
515.2201    0.016393055056456034
515.565     0.006529797817411533
515.5809    0.006529797817411533
515.8555    0.005527395835303463
516.0527    0.004321676470031964
516.2489    0.005777996330830481
516.4075    0.0030213908800332872
516.5205    0.002865356609233446
516.7338    0.0037968339227961337
516.8238    0.003191610084542205
516.9179    0.0029079114103606756
517.1441    0.002392525485597564
517.4459    0.002397253796833923
517.7448    0.002416167041779358
547.935     0.0011064248293079643
548.1924    0.27930607304295196
548.9525    0.0020048039642161404
549.1963    0.08647135589053014
549.388     0.002071000321525164
549.5936    0.0021844797911977757
549.8408    0.0029220963440697518
550.1906    0.11096400809486884
550.4444    0.0029362812777788284
550.5691    0.0036218864070508574
550.7796    0.0026904090934881694
550.9733    0.0028511716755243695
551.1941    0.03458759669396478
551.4427    0.002983564390142417
551.6468    0.002364155618179411
551.7195    0.002203393036143211
551.8277    0.002071000321525164
551.9545    0.0020899135664705993
552.1903    0.007116108410720027
552.3615    0.0016170824428347172
552.5933    0.001271915722580523
552.7657    0.0019906190305070642
552.9463    0.0016076258203619994
553.172     0.0017731167136345583
553.3252    0.001409036748434929
553.7444    0.0012199042989805761
553.9482    0.0009362056247990468
554.1588    0.0015367011518166171
554.3473    0.0006099521494902881
554.5463    0.0012293609214532937
554.7236    0.0007234316191628997
555.172     0.0008558243337809468
555.5307    0.0007848996652355645
555.7522    0.0005532124146539821
565.1298    0.002983564390142417
566.1143    0.002118283433888752
567.1368    0.0024256236642520757
584.1693    0.04409623059028237


