PRECURSORMZ: 405.1391375879999
COMPOUNDNAME: challenge-175
FORMULA: C17H24O11
SMILES: C12(C(C(OC=C1C(=O)OC)OC1OC(C(C(C1O)O)O)CO)C(CC2=O)C)O
INCHIKEY: PRZVXHGUJJPSME-UHFFFAOYSA-N
PRECURSORTYPE: [M+H]+
IONMODE: positive
CHARGE: 1
PARENTMASS: 404.13186158799994
NUM PEAKS: 56
67.0504     0.010612213623477126
81.0666     0.042589329042474394
91.0508     0.04574362117845376
95.0463     0.16680714121523255
96.0469     0.013894209894516384
109.0634    0.07719714964370546
110.0704    0.006244732204428779
119.0478    0.045386049600286055
123.0313    0.05114550609148724
137.0578    0.050085561770490124
147.0454    0.09404132505810538
148.0467    0.012783183919495312
155.03      0.03389267744489566
165.0554    0.27183102188848873
166.0535    0.035795469057288073
175.0373    0.08044083467422675
176.0326    0.01225959696574975
193.0491    1.0
193.7943    0.006806630398692309
193.8441    0.006908793706740224
194.0558    0.13460015835312747
194.2913    0.004571808035144178
194.7467    0.005006002094347815
195.0608    0.023254922994406558
197.0841    0.007892115546701401
207.0648    0.9306438842489719
207.5701    0.0031032104819554056
207.7191    0.005235869537455622
207.8632    0.0069343345337522025
208.072     0.13978494623655913
208.2919    0.006615074196102469
208.3539    0.006730007917656374
208.5244    0.005606211529129313
208.8728    0.005401884913033483
209.077     0.02167139171966388
225.0757    0.30255663678389905
225.6336    0.002285904017572089
225.9489    0.004329170178530381
226.0832    0.043776977498531405
226.3345    0.0022731336040660998
226.6432    0.0024263785661379714
226.8678    0.0031926033764973307
243.0867    0.3018287232140577
244.092     0.04639491226725921
245.0991    0.006283043444946747
265.0596    0.016959109135953825
278.9902    0.01283426557351927
296.9825    0.005797767731719153
305.9802    0.009284090618854239
338.0269    0.005452966567057441
340.0226    0.004124843562434551
342.0339    0.002732868490281715
351.0663    0.004597348862156157
369.108     0.00471228258371006
387.1285    0.004290858938012413
405.1399    0.14697468904043112


