PRECURSORMZ: 915.4958895920001
COMPOUNDNAME: challenge-130
FORMULA: C46H76O18
SMILES: C1C(CC2=CCC3C(C2(C1O)C)CCC1(C3CCC1C(C(CC(=C(C)C)C)OC1OC(C(O)C(O)C1O)CO)C)C)OC1OC(C(O)C(O)C1O)COC1OC(C(O)C(O)C1O)CO
INCHIKEY: HBCGNAJUSBIBGA-UHFFFAOYSA-N
PRECURSORTYPE: [M-H]-
IONMODE: negative
CHARGE: -1
PARENTMASS: 916.5031655920002
NUM PEAKS: 43
89.0245     0.00438684147413862
179.0541    0.008149132624510351
698.354     0.00041969781757134864
709.3825    0.00829402829962427
710.3865    0.004261931409385242
797.395     0.04407326724758174
798.3964    0.02007554560716284
857.4132    0.0044567911104005115
858.4178    0.0029178991126389
859.4232    0.0008993524662243184
889.4421    0.00393716524102646
890.4408    0.00196858262051323
905.4387    0.0006595251418978334
915.4942    1.0
915.9067    0.009852905907746422
916.4993    0.543343792469422
916.8036    0.010902150451674792
917.2185    0.010532416660004797
917.5019    0.22682168838436323
917.816     0.013115556799104644
917.9158    0.013110560396514507
918.152     0.005061355823806859
918.489     0.05832800383723719
918.5049    0.05687904708609801
918.7233    0.009228355583979534
918.7768    0.004791550083939563
918.9622    0.008378967143656567
919.1838    0.008044208170117514
919.2531    0.006665201055240227
919.495     0.01682288752098489
919.8724    0.006585258613798065
920.1463    0.006395395315372931
920.361     0.0051462946678391555
920.5251    0.007649492365496841
920.9581    0.004171996162762811
921.1617    0.003772283955552002
921.5356    0.0032376688784075463
922.1797    0.0030827803981133585
951.4703    0.016672995443280835
952.4783    0.007279758573826844
953.4695    0.008209089455591973
954.4698    0.00393716524102646
961.4983    0.018721520505236226


