PRECURSORMZ: 741.2236550600003
COMPOUNDNAME: challenge-197
FORMULA: C33H40O19
SMILES: c1(cc(c2c(c1)occ(c2=O)c1ccc(cc1)O)O)OC1C(C(C(C(O1)COC1C(C(C(C(O1)C)OC1C(C(C(C(O1)CO)O)O)O)O)O)O)O)O
INCHIKEY: VPBGBMLWGOFHSN-UHFFFAOYSA-N
PRECURSORTYPE: [M+H]+
IONMODE: positive
CHARGE: 1
PARENTMASS: 740.2163790600002
NUM PEAKS: 5
287.0564    1.0
288.0585    0.1827615837133981
449.1068    0.08962918897481657
595.1656    0.07859078590785908
741.2276    0.05981889087183554


