PRECURSORMZ: 409.1656625519999
COMPOUNDNAME: challenge-108
FORMULA: C24H26O6
SMILES: c1(c(cc2c(c1CC=C(C)C)oc1c(c2=O)c(cc(c1CC=C(C)C)O)O)O)OC
INCHIKEY: CJBZJZGULKATPY-UHFFFAOYSA-N
PRECURSORTYPE: [M-H]-
IONMODE: negative
CHARGE: -1
PARENTMASS: 410.1729385519999
NUM PEAKS: 29
267.0336    0.0023304226959579436
268.0378    0.0018745397335475664
270.0199    0.0022188429499134456
282.0097    0.004035998814066699
284.0311    0.0019924954650803214
295.0282    0.007507722912422651
296.0272    0.0052187441221383775
307.0233    0.007482218970469623
308.0266    0.004396241994153221
309.0246    0.0018044038931767392
351.0862    0.2719070891394651
351.3527    0.002288978790284273
351.5689    0.0016067483430407712
352.0915    0.07183504050344781
352.2574    0.0023304226959579436
352.5352    0.0026109660574412533
365.1053    0.016443666574214876
366.1085    0.004252782320667438
376.1241    0.007306879369542554
377.1392    0.08615869190281722
378.1431    0.024190488942447165
383.113     0.025079938918059024
384.1154    0.006809552501458507
385.1328    0.0012624451266748918
394.1414    0.10642157378449806
395.1456    0.029154193645055265
395.3269    0.001970179515871422
396.1475    0.006273969720444916
409.1652    1.0


