PRECURSORMZ: 533.3108943679999
COMPOUNDNAME: challenge-179
FORMULA: C30H44O8
SMILES: C1C(CC2C(C1)(C1C(CC2)C2(C(CC1)(C(CC2)C1=CC(=O)OC1)C)O)C=O)OC1OC(C(C(C1)OC)O)C
INCHIKEY: BVEFMGIAGANFEG-UHFFFAOYSA-N
PRECURSORTYPE: [M+H]+
IONMODE: positive
CHARGE: 1
PARENTMASS: 532.3036183679999
NUM PEAKS: 8
335.1976    0.5584251968503937
353.2096    1.0
354.2074    0.3404724409448819
371.2197    0.5206299212598425
372.2307    0.16062992125984252
389.2309    0.4280314960629921
390.2395    0.13291338582677167
533.3101    0.08724409448818897


