PRECURSORMZ: 301.07066410399995
COMPOUNDNAME: challenge-158
FORMULA: C16H12O6
SMILES: c1(c(c(c2c(c1)oc(cc2=O)c1ccc(cc1)O)O)OC)O
INCHIKEY: IHFBPDAQLQOCBX-UHFFFAOYSA-N
PRECURSORTYPE: [M+H]+
IONMODE: positive
CHARGE: 1
PARENTMASS: 300.06338810399996
NUM PEAKS: 14
190.9815    0.0026089497857162665
190.9957    0.0026110830234805484
198.0072    0.00035838394439929096
198.5105    0.00025598853171377925
256.0639    0.00164259307849675
282.0561    0.008010307804877008
283.0597    0.005170968340618341
285.0439    0.014224429412228998
285.5798    0.0010815515464907173
286.0464    0.7550125754366205
287.0516    0.15622553442939088
287.3152    0.00761139234295637
289.6131    0.0012671432319832073
301.0705    1.0


