PRECURSORMZ: 762.2603749160002
COMPOUNDNAME: challenge-169
FORMULA: C36H43NO17
SMILES: [C@@H]1([C@H]2[C@]([C@]34[C@@]([C@H]1OC(=O)C)([C@@H](C(=O)[C@H]([C@H]3OC(=O)C)[C@](O4)(C)COC(=O)c1c(nccc1)[C@H]([C@@H](C(=O)O2)C)C)OC(=O)C)COC(=O)C)(C)O)OC(=O)C
INCHIKEY: IMIAGCONYJPMDY-UHFFFAOYSA-N
PRECURSORTYPE: [M+H]+
IONMODE: positive
CHARGE: 1
PARENTMASS: 761.2530989160001
NUM PEAKS: 49
207.6273    0.00016933960878393097
459.1787    0.00024333907776152435
600.1998    0.00029821508846400934
642.2145    0.0059113658195621335
660.2273    0.0021712053931478154
661.2254    0.0008350576780130671
674.2511    0.00022670998360925618
684.2241    0.006393886701547115
702.2354    0.007700933501915394
703.241     0.0031254382459188043
704.2536    0.0009816708581222315
726.2463    0.0010731308759597065
727.2672    0.0005867298720058623
728.2589    0.0005168876765663359
729.2482    0.00027354859880481154
732.2755    0.0011687481673352486
732.4156    0.00017127966976836223
743.0549    0.00015769924287734323
743.7648    0.00017127966976836223
743.9732    0.00020592361591892095
744.2497    0.10367381034074677
744.6302    0.0008755218071169196
744.9514    0.000470326212939985
745.2509    0.03825162812689329
745.4803    0.0005315767097341729
745.6602    0.0012779458856018097
745.6931    0.0012776687340326051
745.9322    0.0009193117550512259
745.9871    0.0009184803003436123
746.2696    0.014749175058354262
746.5852    0.0013585969922403102
746.8175    0.00020038058453483156
747.0036    0.001105834761125834
747.2526    0.004663352303434406
747.5007    0.0005681607168691628
747.71      0.00041323298968386424
747.9999    0.00040879856457659276
748.1735    0.00013386420792575884
748.2668    0.0007740843327880838
748.7289    0.0002948892696335557
748.7637    0.00030320381670968983
749.0163    0.00024805065443800036
749.3297    0.00047974936629293697
749.6357    0.00024888210914561374
749.6624    0.00024638774502277355
749.8207    0.00019095743118187962
749.8519    0.00018153427782892763
750.512     0.00026745126428231325
762.2618    1.0


