PRECURSORMZ: 447.18608777999987
COMPOUNDNAME: challenge-207
FORMULA: C20H30O11
SMILES: c1c(ccc(c1)CCO[C@@H]1O[C@@H]([C@H]([C@@H]([C@H]1O)O)O)CO[C@@H]1OC[C@@H]([C@@H]([C@H]1O)O)O)OC
INCHIKEY: LQUPEGJECBPTCO-UHFFFAOYSA-N
PRECURSORTYPE: [M+H]+
IONMODE: positive
CHARGE: 1
PARENTMASS: 446.1788117799999
NUM PEAKS: 67
69.0324     0.032260888597067196
73.0323     0.03046618516086671
85.0216     0.10124753775443204
97.0072     0.24955132414094988
105.0676    0.13223900196979646
109.0154    0.02994090610636901
115.0263    0.0854453928649595
120.0633    0.030816371197198513
127.0362    0.10737579339023857
128.0468    0.03287371416064784
133.0524    0.10956445611731233
134.071     0.018603633180126943
135.0805    1.0
144.0578    0.02306850514335741
145.0522    0.1265047056248632
149.096     0.07021230028452616
153.0893    0.051958853140731016
159.0849    0.05318450426789232
163.0596    0.07835412562924053
165.0897    0.07292624206609762
169.049     0.03646312103304881
177.0811    0.10050339242722696
179.0187    0.05471656817684395
185.0866    0.0881155613919895
186.0703    0.055022980958634275
189.0742    0.07979864302910922
189.09      0.07979864302910922
199.0407    0.04504267892317794
201.0879    0.13841103086014445
202.0821    0.027008098052090174
203.0951    0.06771722477566207
213.0896    0.12098927555263733
219.1011    0.13088203107901072
220.0902    0.02757715036112935
220.1196    0.026482818997592472
223.0614    0.050908295031735606
231.1028    0.3860801050558109
232.1019    0.06474064346684176
241.0732    0.06211424819435325
243.0997    0.060757277303567524
246.9828    0.032348435106150146
249.1098    0.13088203107901072
250.1136    0.024644342306850513
259.084     0.09958415408185599
260.0718    0.020529656379951848
261.1151    0.07791639308382578
262.1128    0.020398336616327426
265.0929    0.05064565550448676
267.1228    0.1053622236813307
268.1069    0.018297220398336617
277.0872    0.03186692930619391
279.1268    0.04591814401400744
285.1312    0.0680236375574524
286.1127    0.014138761216896474
295.1042    0.17119719851170936
296.112     0.022499452834318232
297.1306    0.045436638214051216
306.9996    0.00993652878091486
308.9984    0.01256292405340337
315.1458    0.22381265047056248
316.1437    0.025826220179470345
320.0359    0.044736266141387614
368.0554    0.15158678047712848
369.0654    0.1709345589844605
370.0628    0.030685051433574084
427.1463    0.02985335959728606
447.1911    0.06228934121251915


