PRECURSORMZ: 335.22278350399995
COMPOUNDNAME: challenge-049
FORMULA: C20H32O4
SMILES: CC(=CCC/C(=C\CC/C(=C/CC/C(=C/CO)/CO)/C)/C(=O)O)C
INCHIKEY: GWVCYAYKRPLWGK-AAMZJHKISA-N
PRECURSORTYPE: [M-H]-
IONMODE: negative
CHARGE: -1
PARENTMASS: 336.23005950399994
NUM PEAKS: 23
81.073      0.00688102715171053
119.0917    0.0033960481338409804
135.1058    0.003996331601033822
147.1203    0.003284884528805269
149.1269    0.008281688575160493
175.1499    0.008620737570519411
185.1117    0.005157991273657005
186.1043    0.003890726176249896
187.1415    0.026301308951449293
188.1639    0.004213100630853458
231.2002    0.005891671066892699
243.2112    0.06656476669538393
244.2128    0.015234972070144235
255.2117    0.21344523802906928
256.2158    0.04810049189895228
256.6475    0.0027179501431231416
257.2123    0.00683100352944446
273.2181    0.008392852180196204
305.1962    0.004196426090098102
309.1695    0.0034238390350999084
310.1693    0.0010671706083428285
331.1743    0.0025456465553177886
335.2229    1.0


