PRECURSORMZ: 391.1387436639999
COMPOUNDNAME: challenge-196
FORMULA: C20H22O8
SMILES: c1(c(c(c2c(c1)CC(CO2)C1=CC(=O)C(=C(C1=O)OC)OC)OC)OC)OC
INCHIKEY: TZOHVRDKXUMVIU-UHFFFAOYSA-N
PRECURSORTYPE: [M+H]+
IONMODE: positive
CHARGE: 1
PARENTMASS: 390.1314676639999
NUM PEAKS: 109
77.0185     0.00340800028973435
94.0358     0.0029915071618709594
107.0499    0.014446879017800554
109.0629    0.015040834434927475
135.0451    0.024660014848885428
136.0524    0.028509860022092246
137.06      0.0415877442370027
138.0614    0.0122774930735382
139.0373    0.015077051228654728
140.035     0.010988175216848051
151.0527    0.006692863480796046
152.0384    0.006837730655705051
154.0589    0.06264780978939934
163.0418    0.034648606558861345
164.0385    0.008449377976567736
165.0588    0.013708056425764626
167.0405    0.016681455190771962
169.0855    0.05818952248157471
170.0853    0.007232493707332089
182.058     0.05644387302392119
183.0492    0.14247686652300673
183.0658    0.14222334896691596
184.0708    0.018351049381598247
193.0257    0.004049037538706698
194.0635    0.008532676602140412
195.0683    0.05788892309363852
196.0706    0.014388932147836953
197.0819    1.0
197.2079    0.0077250421020227085
197.2325    0.007956829581877116
197.5102    0.0029190735744164566
197.6723    0.008235698893576952
197.9062    0.015837603896927007
198.087     0.14441084330804194
198.2691    0.013505242380892018
198.394     0.013758759936982778
198.6772    0.0064900494359234374
198.7521    0.008188617061731525
198.9613    0.00873549064701302
199.0835    0.018271372435398295
199.2021    0.0036216793727251325
199.3139    0.002531553881534868
199.5344    0.0014631584665809536
199.7476    0.0016478641145899354
200.4574    0.0009090415225540084
207.0654    0.029397171468409904
207.0886    0.02908570704235554
208.0692    0.006631294931459718
209.0812    0.01589917244626333
210.0911    0.004863915397569854
211.0686    0.00859424515147674
215.028     0.002017275410607899
215.513     0.0009126632019267334
221.0794    0.011401046665338718
223.0969    0.015660141607663474
235.5539    0.00017384060989080637
236.0318    0.00191224670879887
236.5373    0.0006519022870905239
237.0569    0.005827282110714739
238.0563    0.003317458305416221
243.0686    0.004853050359451678
243.5417    0.00026076091483620957
244.0401    0.0015102402984263803
244.5495    0.0003114644260543614
252.5567    0.00030422106730891113
254.0627    0.002459120294080365
255.0796    0.005631711424587581
267.0667    0.015739818553863427
271.097     0.021157850895460226
272.096     0.005968527606251019
295.0379    0.009814751100085109
296.0666    0.026470854535247994
297.076     0.031946833746808394
298.083     0.013407457037828441
299.0931    0.03070097604259095
300.0991    0.014551907719609583
311.0622    0.007207141951723014
313.0758    0.02375097332633142
314.0817    0.009648153848939753
316.0959    0.010271082701048477
321.0666    0.0010249352624812126
326.081     0.00576571356137841
327.0908    0.08766274921681183
328.0962    0.046252467269072665
329.097     0.04759248863698096
330.0914    0.014573637795845933
331.112     0.021907538525614327
332.1122    0.006634916610832442
341.103     0.011564022237111348
342.1051    0.03741556959962334
343.0883    0.019720044184488347
344.0916    0.01763395686579867
345.0976    0.043159553084765406
347.1166    0.014664179780164061
348.1086    0.004059902576824873
357.0973    0.01219419444796552
358.1035    0.006960867754377704
359.1168    0.1694656212085544
360.1206    0.11756333411803052
361.1211    0.038556398602031756
362.1263    0.007475146225304674
363.115     0.02022345761729714
364.0966    0.002546040599025768
372.119     0.005142784709269688
373.1272    0.007123843326150335
375.1086    0.11302536986400595
376.1154    0.053966644332977196
377.1262    0.014696774894518589
391.1382    0.251333683429006


