PRECURSORMZ: 579.2436026559999
COMPOUNDNAME: challenge-177
FORMULA: C29H38O12
SMILES: C(Cc1ccc(cc1)O)C1OC(CC2C(C(OC=C2C(=O)OC)OC2OC(C(O)C(O)C2O)CO)C=C)CC(=O)C1
INCHIKEY: GGNFGJZLCXTJLH-UHFFFAOYSA-N
PRECURSORTYPE: [M+H]+
IONMODE: positive
CHARGE: 1
PARENTMASS: 578.2363266559998
NUM PEAKS: 65
105.0677    0.07503904315697253
107.0479    0.28042509427494
129.0675    0.11404410924465774
133.0645    0.30320344341599054
147.0804    0.27516855216546676
151.0394    0.09008494267321829
163.0783    0.046585152173084975
165.0557    0.5163600350436139
167.0697    0.1866834266560012
175.0755    0.34822686931017405
176.0715    0.04460442616081971
189.0548    0.1440216356225955
190.0596    0.028034891250523747
191.069     0.12672837390012567
193.0873    0.23178303431988723
207.1047    0.09838875557079191
217.0855    0.17399916200053325
219.0755    0.05660305488896506
225.1139    0.0796480402239744
233.0944    0.0557269645373862
235.0997    0.15773435416904735
236.094     0.02925379956576391
249.1147    0.10513084218946406
251.1029    0.08315240163028988
267.1212    0.087951853121548
268.1197    0.01683617110425475
279.1237    0.07420104369024492
297.1245    0.13537500476136058
297.1443    0.13415609644612042
309.1022    0.016264807831485924
315.1308    0.08688530834571287
317.0827    0.008151449358168588
317.5858    0.0023235439759265604
347.1486    0.060907324877156895
349.1432    0.1500399954290938
350.1425    0.03687197653601493
367.1547    0.305222260313107
368.1584    0.0819334933150497
381.1694    0.11248238296575629
382.1685    0.028149163905077514
385.1651    0.28838608920885234
386.1668    0.07580086085399763
387.1737    0.020150078086313944
399.1799    0.49000114272654555
400.1844    0.12215746771797507
401.0702    0.1193387422389822
417.1899    1.0
418.1946    0.28480554603283437
418.5236    0.01017026625528511
418.93      0.012074810497847864
419.1964    0.07496286138727003
420.2106    0.013903172970708108
438.072     0.02898716337180512
471.1019    0.0322248885841618
473.1149    0.03264388831752561
474.1113    0.007884813164209803
475.1126    0.013446082352493047
529.2068    0.011579628994781547
547.2204    0.020988077553041558
548.2214    0.008075267588466079
561.2339    0.027196891783796136
562.2376    0.011084447491715232
563.1211    0.1600578981449739
564.1259    0.05622214604045252
579.2427    0.8633299051536967


