PRECURSORMZ: 366.1699846680899
COMPOUNDNAME: challenge-041
FORMULA: C22H24NO4+
SMILES: Cc1c2ccc(c(c2c[n+]2CCc3cc(c(cc3c12)OC)OC)OC)OC	
INCHIKEY: RFKQJTRWODZPHF-UHFFFAOYSA-N
PRECURSORTYPE: [M]+
IONMODE: positive
CHARGE: 1
PARENTMASS: 365.1627086680899
NUM PEAKS: 9
305.1418    0.025
308.1294    0.019
321.136     0.024
322.1445    0.414
334.143     0.086
336.124     0.18600000000000003
350.1388    0.682
351.1467    0.636
366.1696    1.0


