PRECURSORMZ: 269.04554742
COMPOUNDNAME: challenge-015
FORMULA: C15H10O5
SMILES: c1cc(ccc1c1c(c(=O)c2ccc(cc2o1)O)O)O	
INCHIKEY: OBWHQJYOOCRPST-UHFFFAOYSA-N
PRECURSORTYPE: [M-H]-
IONMODE: negative
CHARGE: -1
PARENTMASS: 270.05282342
NUM PEAKS: 30
91.0186     0.016325036603221085
93.0347     0.015592972181551977
119.0137    0.008125915080527086
121.0281    0.010395314787701317
133.0295    0.008125915080527086
135.0068    0.0157393850658858
147.0071    0.013323572474377744
149.0259    0.00966325036603221
167.0499    0.025183016105417275
168.0553    0.014055636896046851
169.0641    0.04963396778916544
171.0453    0.014055636896046851
182.0388    0.00966325036603221
185.064     0.012591508052708637
195.0447    0.07415812591508053
196.0533    0.06376281112737921
197.0609    0.042972181551976574
211.0404    0.07576866764275256
213.0542    0.08374816983894583
223.0401    0.09714494875549047
224.0474    0.14846266471449487
225.0532    0.01800878477306003
226.0256    0.007393850658857979
239.0325    0.06076134699853587
240.0422    0.017057101024890192
241.0497    0.028184480234260616
251.0347    0.011127379209370424
252.0452    0.029502196193265006
268.0386    0.02152269399707174
269.0449    1.0


