PRECURSORMZ: 893.4904102880001
COMPOUNDNAME: challenge-051
FORMULA: C47H74O16
SMILES: C1(C(C(C(C(O1)OC1C(C(OC(C1OC1C(C(C(CO1)O)O)O)OC1CCC2(C(C1(C)C)CCC1(C2C=CC2=C3C(CCC12C)(C(CC(C3)(C)C)O)C)C)C)C(=O)O)O)O)O)O)C
INCHIKEY: LXAMCLNOVGHDMD-UHFFFAOYSA-N
PRECURSORTYPE: [M-H]-
IONMODE: negative
CHARGE: -1
PARENTMASS: 894.4976862880002
NUM PEAKS: 9
73.0963     0.0013199070384460518
73.2327     0.0010158271890825308
154.3525    0.0008921903272534072
507.3833    0.002101826651095105
597.3808    0.0012012824818262169
875.4778    0.00722106103818207
876.4772    0.004121785650438493
877.4749    0.0019163713583514195
893.4911    1.0


