PRECURSORMZ: 285.07574948399997
COMPOUNDNAME: challenge-013
FORMULA: C16H12O5
SMILES: COc1ccc(cc1O)c1coc2cc(ccc2c1=O)O	
INCHIKEY: ZZAJQOPSWWVMBI-UHFFFAOYSA-N
PRECURSORTYPE: [M+H]+
IONMODE: positive
CHARGE: 1
PARENTMASS: 284.068473484
NUM PEAKS: 23
81.0347     0.012
134.0356    0.064
137.0229    0.217
141.0723    0.024
158.0782    0.013000000000000001
169.0651    0.031
181.066     0.017
183.0539    0.02
185.0655    0.016
186.0736    0.049
196.0523    0.012
197.0606    0.10800000000000001
213.0544    0.226
214.0613    0.188
224.0626    0.01
225.0569    0.397
229.0853    0.08
242.059     0.05
253.0511    0.446
257.0832    0.013999999999999999
269.045     0.19399999999999998
270.0542    1.0
285.0774    0.665


