PRECURSORMZ: 419.20752736399993
COMPOUNDNAME: challenge-063
FORMULA: C23H32O7
SMILES: C1CC(C2C(C1O)(c1c(C(C2OC(=O)C)O)cc(cc1O)C(C)C)C)(C(=O)OC)C
INCHIKEY: WBEFPLHFVLPKHQ-UHFFFAOYSA-N
PRECURSORTYPE: [M-H]-
IONMODE: negative
CHARGE: -1
PARENTMASS: 420.2148033639999
NUM PEAKS: 105
59.0141     0.0014115345396924373
144.0774    0.0008394840676792915
172.091     0.003013275861329245
187.112     0.018889106585874074
188.1136    0.0032034826432736163
198.0977    0.0011326599345860286
199.0901    0.0010625837517644183
200.0833    0.007375160710429482
201.0857    0.0018634544125828226
211.0922    0.000939592900281592
212.1129    0.0014901914795942448
213.0944    0.0009824966856825778
214.0939    0.0017061405327792071
215.1074    0.04498318886675372
216.11      0.007305084527607871
217.1052    0.0012113168744878361
225.1177    0.0014015236564322072
227.1425    0.006273963551804176
228.1128    0.002067962456327522
229.0938    0.002255308985911827
238.1002    0.011229350765618052
239.1312    0.0031048039368513484
240.1042    0.0008881083578004089
243.1364    0.008144568595287163
244.139     0.0010182498401833996
245.153     0.0011541118272865216
253.123     0.08800710486686242
253.6902    0.0006321157715745261
253.931     0.0011626925843667188
254.1284    0.01923233686908196
254.3373    0.001065444004124484
254.7365    0.0009782063071424793
255.1271    0.005455931376825378
255.433     0.0007093425852963008
255.6174    0.0006535676642750191
256.1104    0.0021695014151098552
257.1175    0.0010611536255843855
265.1594    0.004446262293722175
266.1508    0.0011340900607660614
267.126     0.0016060317001769066
268.1398    0.0008695167174599815
269.1181    0.005980787684897439
270.1265    0.005593223490108533
271.1336    0.0442380931269566
272.1377    0.009077010864668592
272.3246    0.0007851392728380425
273.1201    0.0011898649817873432
281.1517    0.001350039113951024
283.1696    0.008439174588373934
284.1686    0.0016317739714174983
285.1539    0.05777137716860759
285.9281    0.000696471449676005
286.1529    0.012021640669356258
286.3663    0.000590642112353573
286.5488    0.0006564279166350848
286.7368    0.0008223225535188971
287.1513    0.0030733411608906257
287.6344    0.0006278253930344274
289.1447    0.006063735003339345
290.1502    0.0007708380110377139
297.1493    0.00281591844848471
299.1656    0.005484533900426035
300.1644    0.0011441009440262915
303.1598    0.02522885594195976
304.1649    0.005653288789669913
305.1547    0.0010911862753650754
309.1491    0.0049353654472934156
310.149     0.0011769938461670473
315.1511    0.0010153895878233336
327.1609    0.012183244927699972
328.1646    0.0032864299617155228
331.1504    0.002519882329217907
341.1741    0.004703685006128091
342.1792    0.0010797452659248126
343.1558    0.0015359555173552965
345.1654    0.000992507568942808
357.1677    0.005490254405146167
358.1722    0.0014472876941932589
358.9819    0.000865226338919883
359.1853    0.33718084946634846
359.324     0.0025542053575386956
359.702     0.001404383908792273
359.9023    0.0017676359585206203
360.1884    0.08560163263204713
360.3733    0.004211721600196785
360.6195    0.004206001095476654
360.9374    0.006116649672000561
361.1869    0.013391701549827741
361.3623    0.0037841138723669595
361.5682    0.0023025031498529118
361.8471    0.002087984222847982
362.1919    0.0028859946313063204
362.3428    0.0010683042564845497
362.5546    0.001297124445289808
362.772     0.0012284783886482306
363.18      0.007947211182442628
363.3419    0.0009210012599411648
363.6643    0.0007007618282161036
364.1702    0.0018119698701016393
377.1969    0.0022653198691720573
387.1906    0.0010797452659248126
411.9957    0.0006635785475352491
412.3113    0.0004233173492897279
412.7653    0.0005820613552733759
419.2064    1.0


