PRECURSORMZ: 895.5049622880002
COMPOUNDNAME: challenge-149
FORMULA: C47H74O16
SMILES: C1(C(C(C(C(O1)OC1C(C(OC(C1OC1C(C(C(CO1)O)O)O)OC1CCC2(C(C1(C)C)CCC1(C2C=CC2=C3C(CCC12C)(C(CC(C3)(C)C)O)C)C)C)C(=O)O)O)O)O)O)C
INCHIKEY: LXAMCLNOVGHDMD-UHFFFAOYSA-N
PRECURSORTYPE: [M+H]+
IONMODE: positive
CHARGE: 1
PARENTMASS: 894.4976862880002
NUM PEAKS: 164
81.0649     0.015153382803704527
85.0191     0.02031407933338264
95.0825     0.05357920600876004
105.0693    0.036921989662171605
107.0831    0.053045057482599085
109.0968    0.026082883415920913
111.0411    0.025080327720664975
129.053     0.021826130545899797
133.0998    0.06699044285021655
135.1148    0.050842722020889325
141.0176    0.012729170261897132
147.0685    0.035976957654348385
149.1312    0.032911766881147844
151.1369    0.01718314720311614
161.1302    0.058493372449440785
163.142     0.056603308433794346
164.1472    0.010198128014857546
173.1326    0.07460000493060177
175.1484    0.08363122385753849
177.1625    0.12435799455990271
178.172     0.018522627353335142
183.0896    0.0078067861515831345
189.1635    0.17436251427820101
190.1659    0.029484998644084513
191.1769    0.05394900114225608
214.1276    0.00783143916048287
214.1834    0.014052215072849641
214.2602    0.00355825095119526
215.1802    0.04627369770480488
216.1758    0.009992686274026412
217.1955    0.02946856330481802
225.0838    0.026871779700712473
227.1809    0.033626704139240196
229.1958    0.05638964902332997
231.1872    0.017487200979546223
241.1926    0.02957539301005021
243.1331    0.050760545324556865
243.211     0.050818069011989576
244.2071    0.01226898076243539
245.1886    0.035253802726622784
245.2116    0.03436629440623228
246.2087    0.007880745178282344
253.193     0.024866668310200596
255.1742    0.057162109968855034
255.2125    0.05670192046939329
256.2176    0.013772814305319297
257.2149    0.021571382787269187
261.2173    0.008455982052609522
267.2112    0.08476526226692635
268.205     0.022393149750593727
269.2265    0.11516242224030111
270.2228    0.02632119583528503
271.2241    0.06497711379007141
273.07      0.007675303437451209
273.2094    0.02154672977836945
275.1021    0.00972972084576256
279.1072    0.03416907033503439
281.2266    0.03231187699792093
284.1807    0.009466755417498706
285.201     0.031333974311564726
286.1954    0.008143710606546195
287.0918    0.01373172595715307
287.1393    0.013896079349817979
288.2748    0.01248264017289977
293.1261    0.037291784795667644
293.1434    0.036971295679971074
295.2425    0.03740683217053308
296.2423    0.00972972084576256
297.2644    0.008990130578770473
305.094     0.02263967983959109
309.098     0.011940273977105573
309.2552    0.022935515946387926
311.2679    0.017996696496807435
323.1129    0.01863767472820058
341.1078    0.006270081930166244
349.2783    0.018818463460131975
363.2934    0.017059882158617458
393.0307    0.007552038392952527
401.1084    0.0063933469746649246
405.3519    0.7011890967959307
406.1609    0.00507851983334566
406.3574    0.24753264469261807
406.5669    0.005571580011340384
406.6747    0.007067195884591048
406.8339    0.0048319897443482975
407.3639    0.052100025474775866
407.7383    0.004922384110313997
407.915     0.005415444288308722
408.5171    0.002966578737601591
419.1273    0.005004560806646451
421.3478    0.022935515946387926
422.3521    0.02467766190863595
423.3622    1.0
424.1673    0.007363031991387882
424.3681    0.35270238065889276
424.5697    0.005629103698773102
424.6569    0.006878189483026403
424.8411    0.009269531346300815
425.0494    0.006122163876767827
425.1757    0.014602798938277083
425.5554    0.006911060161559385
425.641     0.006976801518625349
425.7533    0.006253646590899753
425.9389    0.007058978214957803
426.0263    0.005760586412905028
426.5438    0.004141705495155684
437.1337    0.005399008949042231
441.3746    0.012844217636762568
451.0925    0.01006664530072562
455.1415    0.012293633771335124
456.1296    0.0015695748999498724
456.7082    0.0013887861680184732
467.092     0.004347147235986819
469.1391    0.008119057597646459
469.3305    0.007683521107084453
474.71      0.001380568498385228
511.0943    0.006031769510802127
527.0728    0.005144261190411624
528.078     0.0018736286763799523
529.0717    0.005440097297208458
530.0839    0.0024653008899736214
531.0769    0.003163802808799481
569.4132    0.017281759238715087
570.4276    0.006228993582000016
581.386     0.06422108818381284
582.3863    0.025228245774063393
599.3963    0.3425206879833017
600.4007    0.13946207134580776
601.189     0.008628553114907674
601.4029    0.03394719325493677
602.3853    0.008258757981411631
617.402     0.007593126741118754
618.4041    0.0042074468522216475
713.4243    0.024324302114406397
714.4277    0.010830888576617443
727.4446    0.011866314950406364
728.4388    0.006253646590899753
730.434     0.016616127998422207
731.4393    0.21162964606496892
732.4419    0.10272087041556756
733.4487    0.03365135714813993
734.4438    0.010452875773488154
745.4551    0.06343219189902127
746.4572    0.03645358249307662
747.459     0.01441379253671244
748.4389    0.014463098554511913
748.4594    0.014208350795881305
763.4687    0.024628355890836475
764.4796    0.011110289344147786
765.4823    0.004914166440680752
841.4675    0.004741595378382599
859.4871    0.015005464750306109
860.4877    0.009187354649968362
863.4762    0.005588015350606875
864.4663    0.005152478860044869
875.4588    0.0061796875642005445
876.487     0.040085792470971084
876.5151    0.040094010140604326
877.4969    0.22547641939698743
878.5022    0.10654208679502666
879.5021    0.040669247014931506
880.5146    0.009179136980335118
891.4887    0.011414343120577868
895.5056    0.07353170787827988


