PRECURSORMZ: 302.138684088
COMPOUNDNAME: challenge-012
FORMULA: C17H19NO4
SMILES: CO[C@H]1C=C2C3CN(Cc4cc5c(cc34)OCO5)C2C[C@@H]1O	
INCHIKEY: MKYLOMHWHWEFCT-WUCCLRPBSA-N
PRECURSORTYPE: [M+H]+
IONMODE: positive
CHARGE: 1
PARENTMASS: 301.131408088
NUM PEAKS: 31
135.0475    0.129
153.0848    0.078
165.0733    0.23399999999999999
167.0832    0.146
174.0576    0.28300000000000003
181.066     0.07400000000000001
183.0824    0.091
185.0618    0.602
187.0614    0.042
193.0646    0.163
195.0834    0.10300000000000001
197.0617    0.166
197.0945    0.15
199.0785    0.22699999999999998
211.0767    0.248
213.0912    0.249
223.0752    0.696
224.0839    0.151
226.0877    0.314
227.0729    0.096
240.1059    0.12
241.0889    0.217
242.1043    0.125
252.1042    0.55
253.0988    0.062
255.1011    0.177
256.0786    0.091
258.1148    0.23399999999999999
270.113     0.785
284.1291    0.16899999999999998
302.1397    1.0


