PRECURSORMZ: 327.16018324799995
COMPOUNDNAME: challenge-062
FORMULA: C20H24O4
SMILES: c1c(ccc(c1)CCC(CC(=O)CCc1ccc(cc1)O)OC)O
INCHIKEY: PASZRDILCDRSOZ-UHFFFAOYSA-N
PRECURSORTYPE: [M-H]-
IONMODE: negative
CHARGE: -1
PARENTMASS: 328.16745924799994
NUM PEAKS: 26
83.0499     0.322465573247773
84.0127     0.022001235576635646
84.0561     0.022061021542876504
93.0343     0.1267462484306184
94.0259     0.012276051734789455
95.0465     0.027043185396281314
119.0509    0.011010582116024632
189.0925    0.34919986448514323
190.0964    0.05673688196257399
191.101     0.007433388469279978
201.0919    0.0396580242731023
202.0789    0.006735885529803304
221.1183    0.29994619263038325
222.1219    0.050818071304729075
223.1243    0.0057992387253632
233.1183    0.04801809521911557
234.1179    0.00739353115845274
295.134     0.08588254050499214
296.1357    0.023844636202395426
320.6184    0.0010661830646286295
321.3566    0.0008270391996651988
321.7565    0.0015345064668486818
322.0208    0.001424898862073776
322.3517    0.0008270391996651988
322.5703    0.0008270391996651988
327.1598    1.0


