PRECURSORMZ: 609.2188798959999
COMPOUNDNAME: challenge-065
FORMULA: C29H38O14
SMILES: C1(C(C(C(C(O1)Oc1c2ccccc2c(OC2C(C(C(C(O2)CO)O)O)O)c(c1C(=O)OC)CC=C(C)C)O)O)O)CO
INCHIKEY: OZDABLANSWPSGY-UHFFFAOYSA-N
PRECURSORTYPE: [M-H]-
IONMODE: negative
CHARGE: -1
PARENTMASS: 610.2261558959999
NUM PEAKS: 36
207.0607    0.009578095159986408
225.0926    0.014551674848566508
227.0197    0.00480955114761397
237.0614    0.003555904441658563
241.0496    0.013169148574709142
242.0637    0.002823634169488348
284.1041    0.3737390305913229
285.1105    0.08267624280910592
286.2354    0.002993520872631838
287.104     0.004106571686330564
295.0976    0.014739136038242081
346.0777    0.0065377089899356765
378.0889    0.325057702897447
379.0987    0.07098920926526929
415.1393    0.026057105364904923
416.141     0.006192077421471336
447.1656    1.0
447.4917    0.006912631369286827
447.987     0.0035266136307717543
448.1705    0.2626448430598352
448.3651    0.009021569753137046
448.6489    0.01418261063139272
448.7739    0.014042014739136037
449.1726    0.07555857576361144
449.3342    0.007176248667268104
449.5708    0.008101838291291257
449.6563    0.007814788344600532
449.8052    0.006566999800822485
450.1755    0.016273974528710853
450.3916    0.006092488664456186
450.6182    0.005512530608897376
450.8481    0.0048505582828555025
451.5613    0.0026771801150543054
451.7224    0.003637918712141627
452.1114    0.0031106841161790723
609.2171    0.005131750067368865


