PRECURSORMZ: 349.2020480599999
COMPOUNDNAME: challenge-104
FORMULA: C20H30O5
SMILES: C1(=O)C=C(C2(C(C1)C(C(CC2)C)(CCC(C)CC(=O)O)C)C)C(=O)O
INCHIKEY: XKXZAYIPFRBKHT-UHFFFAOYSA-N
PRECURSORTYPE: [M-H]-
IONMODE: negative
CHARGE: -1
PARENTMASS: 350.2093240599999
NUM PEAKS: 32
159.0655    0.003474918316355949
173.099     0.002467807034403229
197.1549    0.014099557947338075
243.1836    0.0023140495867768596
245.192     0.02839131270420911
246.196     0.007253507591773976
260.21      0.0045896598116471265
261.2232    0.056490486257928116
262.2264    0.013538343263501826
288.2044    0.0029021718239477224
305.2125    1.0
305.8701    0.011082068037670575
306.2153    0.27666346338650777
306.3653    0.01000576590428599
306.5564    0.01602536997885835
306.8303    0.01778973669037094
307.2149    0.047203536421295406
307.3896    0.008971747068998654
307.6619    0.005723620987891601
308.2203    0.006550067268883337
308.3272    0.0028522006534691525
308.5446    0.0035402652315971554
308.7543    0.0031097443782433214
309.014     0.003609456083029022
309.3949    0.002098789160099942
309.7313    0.0024024601191620218
327.1949    0.018404766480876418
328.2004    0.004105323851624063
342.6732    0.0007841629828944839
343.4365    0.00065346915241207
343.6334    0.0005535268114549299
349.2027    0.8979396502018067


