PRECURSORMZ: 413.1089355239999
COMPOUNDNAME: challenge-057
FORMULA: C18H22O11
SMILES: [C@H]1(OC=C2[C@@H]3[C@H]1C(=C[C@@H]3OC2=O)COC(=O)C)O[C@@H]1O[C@@H]([C@H]([C@@H]([C@H]1O)O)O)CO
INCHIKEY: IBIPGYWNOBGEMH-UHFFFAOYSA-N
PRECURSORTYPE: [M-H]-
IONMODE: negative
CHARGE: -1
PARENTMASS: 414.1162115239999
NUM PEAKS: 16
61.9885     0.015754737066212478
91.0744     0.025122418565041518
147.024     1.0
147.0422    0.9989780711092187
148.0477    0.11147540983606558
179.0592    0.009836065573770493
191.0287    0.20323610815414095
192.0375    0.023930168192463276
233.0459    0.02035341707472855
251.0569    0.07085373642750692
260.9706    0.025420481158186077
353.0874    0.01481796891632957
371.0955    0.03653395784543326
379.1617    0.029167553757717693
380.1623    0.010559931871407281
413.1081    0.7505641899084522


