PRECURSORMZ: 443.38835684
COMPOUNDNAME: challenge-225
FORMULA: C30H50O2
SMILES: [C@@]12([C@]3([C@@H]([C@@]4([C@H](C([C@H](CC4)O)(C)C)CC3)C)CC[C@@H]1[C@H]1[C@H](C(=C)C)CC[C@@]1(CC2)CO)C)C
INCHIKEY: FVWJYYTZTCVBKE-UHFFFAOYSA-N
PRECURSORTYPE: [M+H]+
IONMODE: positive
CHARGE: 1
PARENTMASS: 442.38108084
NUM PEAKS: 63
81.0698     0.054666718823345326
93.0691     0.035460021905805036
95.0821     0.08858159912376778
105.0666    0.03905883273353152
107.083     0.0591065560945079
119.0776    0.06456344859959318
121.0936    0.07929119073697387
133.0926    0.06651932404944454
135.1122    0.08052339227038022
147.1109    0.06321389453919574
149.1276    0.05758097324362384
159.1156    0.035518698169300575
161.1293    0.07893913315600062
163.1448    0.06078860898138007
175.1455    0.071526365201064
177.1577    0.054353778751369104
189.1627    0.11645282428414958
190.1603    0.022825066499765293
191.18      0.2455210452198404
192.1773    0.0390197152245345
201.1654    0.06667579408543263
203.1781    0.14592786731340948
204.1785    0.031020184634642463
205.1929    0.0497183539352214
207.1759    0.02701063996244719
215.1787    0.08488499452354874
217.1825    0.21876466906587388
218.1902    0.038061336254107334
219.1908    0.026013143483023
221.1868    0.01889375684556407
229.2003    0.051048349241120325
231.199     0.03479502425285558
233.1825    0.029514160538256923
235.1997    0.06845564074479737
236.2062    0.014199655765920825
245.2147    0.04872085745579721
247.1913    0.026091378501017056
257.2014    0.04533719292755437
271.2159    0.03248709122203098
283.1849    0.057209356908152084
330.276     0.02126036613988421
395.3612    0.052749960882490995
396.3753    0.012595837897042717
397.3834    0.01969566578000313
407.3665    0.37701455171334686
408.371     0.12891175089970272
409.3618    0.03919574401502112
410.3824    0.008997027069316226
413.3789    0.04629557189798153
425.3764    1.0
426.0665    0.005828508840557033
426.3829    0.3355304334219997
426.5668    0.00653262400250352
426.6682    0.011617900172117038
426.7528    0.011774370208105149
427.0555    0.007354091691441089
427.3827    0.06732123298388358
427.5526    0.006630417774996088
427.6319    0.010933343764669066
427.7275    0.009036144578313253
428.0321    0.007060710373963386
428.3907    0.01615553121577218
443.3814    0.14240729150367704


