PRECURSORMZ: 333.20603537599993
COMPOUNDNAME: challenge-138
FORMULA: C20H28O4
SMILES: C12(C(=CCCC1C(CCc1cocc1)(C(CC2)C)C)C(=O)O)CO
INCHIKEY: PHKSUFCCGLWIMC-UHFFFAOYSA-N
PRECURSORTYPE: [M+H]+
IONMODE: positive
CHARGE: 1
PARENTMASS: 332.19875937599994
NUM PEAKS: 153
67.05       0.022574776501887755
79.0511     0.04143273538214754
79.0725     0.03963301316535926
81.0323     0.0712064007511884
82.0125     0.00512529587824488
91.0519     0.07347561572018232
93.0641     0.06917193215829731
95.0491     0.09981611533871947
96.0409     0.012510025626479392
97.065      0.02369960288738043
105.0695    0.11191533480701893
107.0809    0.06289246659754691
109.0661    0.04547232927091688
109.0942    0.0462645982902639
111.0807    0.010544024726618284
117.069     0.06393904419100531
121.085     0.054392691562824
123.0778    0.04895440051644203
125.0478    0.06325436726070542
126.0703    0.003736379819636535
131.0849    0.10735734267102251
133.0994    0.12305600657289853
134.0856    0.01727342084156576
135.0832    0.10783661652223245
137.0961    0.06611044816995638
138.0974    0.008353058549658642
139.0808    0.014906394882529003
142.0779    0.015043330268588982
143.0849    0.0699152956826229
145.1003    0.13175140358770712
146.1032    0.020696805493065202
147.1106    0.08386314286273205
149.0939    0.11899685048612062
151.11      0.07024785304876857
152.0879    0.009213795262035644
152.1056    0.00892036229190712
155.0874    0.060857998004655814
157.0991    0.0761360746493476
159.1167    0.11911422367417203
161.0947    0.0832175903284493
162.1106    0.008763864707838572
163.1115    0.04881746513038206
165.0883    0.034468592891097244
169.1006    0.07450263111563216
171.1161    0.07492321837281637
173.1318    0.07303546626498954
174.1232    0.014378215536297659
175.1455    0.1353801913182965
176.1462    0.022701930788943447
177.124     0.1264011424323637
178.1234    0.017635321504724272
179.1033    0.04241084528257596
181.1019    0.05712161818501927
185.1324    0.0880983587315871
187.1423    0.08570198947553748
188.1434    0.013820692893053465
189.1273    0.038879868542029385
191.1571    0.0460787574091825
192.5843    0.0020540307908996657
193.1082    0.018231968543985604
193.5847    0.00401025059175649
194.5791    0.0022887771670024844
195.1176    0.0829828439523465
196.5671    0.002308339365011053
197.5838    0.00239636925604961
199.1224    0.050079226901934705
199.1457    0.05867681292670045
201.1289    0.05077368493123888
203.1434    0.08367730198165066
204.1448    0.012333965844402278
205.0958    0.019190516246405446
205.5722    0.0020540307908996657
206.574     0.0027484888202038383
209.135     0.07787711027211018
213.1379    0.04135448659011327
213.1668    0.03241456210019758
214.5564    0.0022692149689939162
215.1435    0.03250259199123614
219.1181    0.03354916958469454
221.1521    0.050059664703926136
222.1621    0.005986032590621883
223.1437    0.04319333320291868
225.1604    0.07231166493867251
229.1538    0.03352960738668597
231.1005    0.018691680197186956
233.1519    0.0436139204601029
234.1553    0.006934799194037443
239.1695    0.0322776267141376
241.1181    0.03822453490874235
241.1947    0.12691954067959077
242.1905    0.02394413036248753
245.1257    0.02266280639292631
247.1447    0.02271171188794773
247.1683    0.021958567264617854
251.18      0.27826248557287897
252.1865    0.05537080146325242
254.1701    0.01612903225806452
255.1726    0.06971967370253722
259.1676    0.02739685831099983
261.164     0.04349654727205149
269.1898    0.6154854359435827
270.1964    0.14760656507365166
270.535     0.004822081809112072
270.7276    0.005477415442399108
270.7732    0.005360042254347699
271.1848    0.0747862829867564
272.1799    0.012881707388642187
279.1756    0.20726148790078056
280.1782    0.047056867309610916
287.1995    0.06421291496312526
288.1875    0.016324654238150202
288.2087    0.014740116199456171
296.6675    0.0025039613450967353
297.1836    0.8905201588450479
297.3262    0.0026311156321524288
297.6898    0.004264559165867877
297.9758    0.00540894774936912
298.1879    0.23287818619300066
298.3174    0.007766192609401593
298.3537    0.007746630411393025
298.6032    0.007179326669144546
298.635     0.007189107768148829
298.9479    0.007864003599444435
298.981     0.007961814589487276
299.1884    0.07015982315773
299.3466    0.004059156086777911
299.5239    0.0031690760773880554
299.8621    0.004548211036992117
300.1913    0.008656272618791448
300.4467    0.003315792562452317
300.6459    0.00389287740370508
314.965     0.005105733680236312
315.1948    1.0
315.3665    0.0031397327803752034
315.5363    0.0036679121266065457
315.7354    0.0052622312643048575
315.9874    0.009262700757057063
316.2003    0.27619867368297507
316.3785    0.006788082708973181
316.4406    0.006015375887634735
316.6248    0.007404291946243081
316.9816    0.007374948649230229
317.2045    0.05092040141630314
317.3435    0.00669027171893034
317.5021    0.004059156086777911
317.7517    0.0048318629081163566
317.9604    0.00389287740370508
318.2092    0.007306480956200239
318.6352    0.0029049864042723843
318.8697    0.00446018114595356
319.4259    0.0030810461863494984
319.6132    0.00194643870185254
333.2053    0.6986149963809934


