PRECURSORMZ: 217.097153624
COMPOUNDNAME: challenge-028
FORMULA: C12H12N2O2
SMILES: c1ccc2c(c1)c1CCNC(c1[nH]2)C(=O)O	
INCHIKEY: XGCIVVYTCDKDLC-UHFFFAOYSA-N
PRECURSORTYPE: [M+H]+
IONMODE: positive
CHARGE: 1
PARENTMASS: 216.089877624
NUM PEAKS: 5
115.0564    0.099
142.0647    0.447
160.0776    0.034
170.0593    1.0
188.0699    0.84


