PRECURSORMZ: 577.1351502719998
COMPOUNDNAME: challenge-040
FORMULA: C30H26O12
SMILES: c1cc(c(cc1[C@@H]1[C@@H](Cc2c(cc(c([C@H]3c4c(cc(cc4O[C@H](c4ccc(c(c4)O)O)[C@@H]3O)O)O)c2O)O)O1)O)O)O	
INCHIKEY: GMISZFQPFDAPGI-CVJZBMGUSA-N
PRECURSORTYPE: [M-H]-
IONMODE: negative
CHARGE: -1
PARENTMASS: 578.1424262719999
NUM PEAKS: 15
125.0232    0.064
137.0278    0.022000000000000002
161.0238    0.024
245.0574    0.018000000000000002
245.0885    0.017
273.043     0.034
287.0568    0.102
289.0725    0.275
299.0584    0.044000000000000004
381.0973    0.027999999999999997
407.0747    0.37
425.0881    0.526
451.1017    0.141
559.1195    0.034
577.137     1.0


