PRECURSORMZ: 785.2509678720002
COMPOUNDNAME: challenge-047
FORMULA: C35H46O20
SMILES: C1(C(C(C(C(O1)OC1C(C(C(OC1OC1C(C(OC(C1O)OCCc1ccc(c(c1)O)O)COC(=O)/C=C/c1cc(c(cc1)O)O)O)C)O)O)O)O)O)CO
INCHIKEY: PSFMBXYUQFAGAM-QPJJXVBHSA-N
PRECURSORTYPE: [M-H]-
IONMODE: negative
CHARGE: -1
PARENTMASS: 786.2582438720002
NUM PEAKS: 13
135.019     0.009568846094645209
161.0199    0.0201723931521609
179.0331    0.01348531750782439
251.0547    0.005652374681466025
311.0907    0.005164953566725384
392.1141    0.005960219596039062
392.6187    0.0013339946298164902
393.1158    0.001026149715243454
623.212     0.10840416616784389
624.2139    0.03405961929845564
625.2153    0.009449128627866805
781.2152    0.006481845701287817
785.2527    1.0


