PRECURSORMZ: 271.06009942
COMPOUNDNAME: challenge-004
FORMULA: C15H10O5
SMILES: c1cc(ccc1c1c(c(=O)c2ccc(cc2o1)O)O)O	
INCHIKEY: OBWHQJYOOCRPST-UHFFFAOYSA-N
PRECURSORTYPE: [M+H]+
IONMODE: positive
CHARGE: 1
PARENTMASS: 270.05282342
NUM PEAKS: 19
65.0387     0.011000000000000001
81.0333     0.013000000000000001
105.0311    0.01
121.028     0.078
133.0271    0.011000000000000001
137.0232    0.111
141.0696    0.027000000000000003
149.022     0.067
169.0635    0.035
181.066     0.011000000000000001
187.0747    0.017
197.0596    0.163
213.0538    0.01
215.0713    0.069
225.0537    0.049
242.0576    0.053
243.0655    0.040999999999999995
253.0502    0.013999999999999999
271.0608    1.0


