PRECURSORMZ: 243.102668372
COMPOUNDNAME: challenge-058
FORMULA: C15H16O3
SMILES: c1c(cc(cc1O)CCc1cccc(c1)O)OC
INCHIKEY: VYQXIUVIYICVCM-UHFFFAOYSA-N
PRECURSORTYPE: [M-H]-
IONMODE: negative
CHARGE: -1
PARENTMASS: 244.109944372
NUM PEAKS: 9
121.0319    0.027777777777777776
122.0145    0.04139039582077557
136.0531    0.05239099859353024
183.0832    0.14250552541691783
201.0877    0.03641752059473578
227.0697    1.0
228.0747    0.1975587703435805
229.0821    0.028681936909785013
243.1025    0.9684046614426361


