PRECURSORMZ: 537.1977505279998
COMPOUNDNAME: challenge-125
FORMULA: C26H34O12
SMILES: C1C(C(C(O1)c1ccc(c(c1)OC)OC1OC(C(C(C1O)O)O)CO)CO)C(O)c1ccc(c(c1)OC)O
INCHIKEY: AWTYKUNFPBFFHC-UHFFFAOYSA-N
PRECURSORTYPE: [M-H]-
IONMODE: negative
CHARGE: -1
PARENTMASS: 538.2050265279998
NUM PEAKS: 21
151.0411    0.013934240164836124
313.1034    0.01602961462571374
315.1246    0.0534233180254588
327.123     1.0
328.1221    0.24198082732368298
329.1346    0.04163683668302223
329.5137    0.005395589236759852
345.1345    0.0699942377202326
346.1386    0.014379507237772617
357.1345    0.09207424610173043
358.1373    0.020822783704971277
359.1377    0.005963086486580873
375.1445    0.1638058984791074
376.1485    0.03735004976514345
376.4483    0.001466762122614329
376.6787    0.0016151844802598265
376.9757    0.0014754928495346522
377.1505    0.007910038589812988
377.5361    0.001466762122614329
378.1424    0.0012572246765265678
537.1976    0.14699051843056454


