PRECURSORMZ: 305.065578724
COMPOUNDNAME: challenge-188
FORMULA: C15H12O7
SMILES: c1cc(c2c(c1O)c(=O)c1c(c(c(cc1O)O)OC)o2)OC
INCHIKEY: MXKGQHAVANZONW-UHFFFAOYSA-N
PRECURSORTYPE: [M+H]+
IONMODE: positive
CHARGE: 1
PARENTMASS: 304.058302724
NUM PEAKS: 25
192.5001    0.0006984468351313734
193.0063    0.0013365961017621963
200.0008    0.0004572565611291725
200.5072    0.0003383363565864206
209.5152    0.0001189202045427518
246.0121    0.00365805248903338
248.0298    0.02154633114419661
275.0208    0.22924968050663358
275.7483    0.0014203427246796273
276.5729    0.001535913064305682
277.0316    0.00903626061279079
279.0989    0.006130252797555938
280.1084    0.0013332462368454991
290.0393    0.285003157247684
290.6515    0.0010535325163012802
290.8505    0.0018926736779339372
291.0476    0.05563790640142437
291.35      0.0016866569855570573
291.5523    0.0011506785988855
291.7474    0.0016129599573897182
292.0515    0.01134766740531188
292.8386    0.0009781605556755924
293.0782    0.003390063295697601
300.9404    0.0015627119836392597
305.0667    1.0


