PRECURSORMZ: 450.175857444
COMPOUNDNAME: challenge-045
FORMULA: C22H27NO9
SMILES: COc1cc(ccc1O[C@H]1[C@H](C([C@@H](C(CO)O1)O)O)O)C1c2cc(c(cc2CCN1)O)O	
INCHIKEY: FDAWAVAMGFJKMH-WQYXIULCSA-N
PRECURSORTYPE: [M+H]+
IONMODE: positive
CHARGE: 1
PARENTMASS: 449.168581444
NUM PEAKS: 14
107.0495    0.021
118.0646    0.12300000000000001
137.0603    0.17800000000000002
146.0611    0.344
152.0717    0.087
164.0703    0.34600000000000003
211.0831    0.045
221.0619    0.027999999999999997
225.0913    0.027000000000000003
239.0729    0.08900000000000001
253.0885    0.047
271.0974    0.275
288.1227    0.526
450.1791    1.0


