PRECURSORMZ: 445.1715357799999
COMPOUNDNAME: challenge-099
FORMULA: C20H30O11
SMILES: c1c(ccc(c1)CCO[C@@H]1O[C@@H]([C@H]([C@@H]([C@H]1O)O)O)CO[C@@H]1OC[C@@H]([C@@H]([C@H]1O)O)O)OC
INCHIKEY: LQUPEGJECBPTCO-UHFFFAOYSA-N
PRECURSORTYPE: [M-H]-
IONMODE: negative
CHARGE: -1
PARENTMASS: 446.1788117799999
NUM PEAKS: 15
59.0113     0.0639596693988134
71.0105     0.04009053808429645
85.0279     0.022120100140608386
87.0061     0.02671559381323091
89.0178     0.11135498473884563
101.0226    0.06217634349600466
131.0308    0.14835899722212698
149.0442    0.2174285812270654
150.0471    0.020645426797901163
191.0587    0.08683425357522548
221.0593    0.019822353304297127
251.0745    0.01488391234267293
311.0938    0.0149182070715731
399.1304    0.027641551493535442
445.1717    1.0


