PRECURSORMZ: 345.20713343999995
COMPOUNDNAME: challenge-052
FORMULA: C21H30O4
SMILES: C1C(CC2=CCC3C(C2(C1O)C)C(CC1(C3CC=C1C(=O)C)C)O)O
INCHIKEY: JZEZLAAJRKPOFM-UHFFFAOYSA-N
PRECURSORTYPE: [M-H]-
IONMODE: negative
CHARGE: -1
PARENTMASS: 346.21440943999994
NUM PEAKS: 3
283.1682    0.05038506065334474
301.1812    0.26365329440781193
345.2068    1.0


