PRECURSORMZ: 521.2028359079998
COMPOUNDNAME: challenge-102
FORMULA: C26H34O11
SMILES: C1(C(C(OC1)c1ccc(c(c1)OC)OC1OC(C(C(C1O)O)O)CO)CO)Cc1ccc(c(c1)OC)O
INCHIKEY: KNFOHFRALRKTOJ-UHFFFAOYSA-N
PRECURSORTYPE: [M-H]-
IONMODE: negative
CHARGE: -1
PARENTMASS: 522.2101119079998
NUM PEAKS: 22
159.0341    0.007679328684249358
161.0493    0.015409981202645744
176.0725    0.005222200124460299
314.1138    0.008038595523278567
329.1383    1.0
329.9648    0.0075317726610766465
330.1435    0.2390150956227185
330.3536    0.009225459187928635
330.5474    0.00792311689644775
330.7348    0.009186966312318362
331.1402    0.046627703322576715
331.3917    0.006319247079353063
331.6661    0.006396232830573608
331.927     0.005254277520802192
332.1497    0.008603157698895896
332.3348    0.0047346237000635135
332.5361    0.003361711136630462
332.8254    0.004073829335420503
359.1489    0.06955662622776235
360.1531    0.0191052972612319
361.1536    0.003958350708589685
521.2023    0.1880697747525229


