PRECURSORMZ: 510.3061433359999
COMPOUNDNAME: challenge-132
FORMULA: C27H43NO8
SMILES: C1[C@@H]([C@@]2([C@@H]3[C@](C1)([C@@]1([C@@H]([C@@H](C3)O)[C@]3([C@@H](C1)[C@H]1[C@H]([C@H]([C@@H]3O)O)[C@@]([C@H]3N(C1)C[C@H](CC3)C)(O)C)O)O2)C)O)O
INCHIKEY: RNPABQVCNAUEIY-UHFFFAOYSA-N
PRECURSORTYPE: [M+H]+
IONMODE: positive
CHARGE: 1
PARENTMASS: 509.2988673359999
NUM PEAKS: 13
297.631     3.188107050520579e-05
302.6207    1.048144783732793e-05
476.2924    0.001360841310879743
492.2837    0.06380668716372022
493.2972    0.02429817972189225
494.3077    0.00532937949828803
494.9444    0.00042362518342533716
495.3064    0.001210170498218154
499.7627    0.0002576689260009783
499.865     0.00018604569911257076
500.5075    0.0002463140241772063
500.5477    0.00024456711620431836
510.3068    1.0


