PRECURSORMZ: 421.16456448799994
COMPOUNDNAME: challenge-209
FORMULA: C25H24O6
SMILES: c1(c(c2c(occ(c2=O)c2ccc(c(c2)O)O)c2c1OC(C=C2)(C)C)O)CC=C(C)C
INCHIKEY: GHCZYXUOYFOXIP-UHFFFAOYSA-N
PRECURSORTYPE: [M+H]+
IONMODE: positive
CHARGE: 1
PARENTMASS: 420.15728848799995
NUM PEAKS: 40
203.4986    0.0022816940937720946
204.4958    0.001032227073764431
213.0545    0.03628311897192882
214.0583    0.005104464078497833
230.5148    0.0009769050998764026
231.5261    0.001057864086054005
232.0324    0.0006287814593127121
232.5235    0.00041963741168723925
240.5146    0.00032113731183782296
252.0428    0.000389952450088785
258.5552    0.0002509728571505675
259.5599    0.00024152764209651388
347.0902    0.06073543143043733
364.6538    0.0011212819585597934
364.9488    0.0017986388095790672
365.1022    1.0
365.3455    0.00646322572984526
365.8299    0.008769207519470636
365.9569    0.0065401367667139824
366.1066    0.22750419637411687
366.3355    0.008317186513312355
366.4438    0.007515692550154092
366.6358    0.007981206720675305
366.7538    0.006370122895741018
366.955     0.006953027596219754
367.1131    0.0551627545485457
367.3643    0.007596651536331694
367.5682    0.0041181137635673765
367.8537    0.003529811797343466
368.3457    0.001859358049212269
368.7479    0.0017325223042006918
369.5468    0.000844672089119652
369.7641    0.0009647612519497621
393.0618    0.0016623578495134363
393.5815    0.0006071923963320182
394.0576    0.0008406241398107718
395.1154    0.013018204977358469
396.1312    0.003022468817297157
405.1328    0.0073713156914707
421.1655    0.6258156617857392


