PRECURSORMZ: 579.1708316400001
COMPOUNDNAME: challenge-195
FORMULA: C27H30O14
SMILES: c1(c(c(c2c(c1[C@@H]1O[C@H]([C@@H]([C@H]([C@H]1O)O)O)C)oc(cc2=O)c1ccc(cc1)O)O)[C@@H]1O[C@@H]([C@H]([C@@H]([C@H]1O)O)O)CO)O
INCHIKEY: MVOUGOXRXQDXDC-UHFFFAOYSA-N
PRECURSORTYPE: [M+H]+
IONMODE: positive
CHARGE: 1
PARENTMASS: 578.16355564
NUM PEAKS: 29
317.0488    0.0137856813406447
325.0701    0.10671518133210339
337.5607    0.0004270657168725124
338.0724    0.017953842737320418
349.075     0.03570269393054203
394.0973    0.030270418011923674
405.0959    0.03710346948188387
441.1166    0.10897008831719025
457.1126    0.2799842839816191
458.1174    0.07471941782401476
459.1262    0.19539110678351185
460.1327    0.052990314149541334
483.1267    0.1555031688276192
495.1302    0.14441654281760877
496.1297    0.04174994448145681
507.1288    0.12625770853618956
508.1275    0.03732554365465758
509.1043    0.011052460752660621
513.1393    0.13975298518936094
514.142     0.04070790413228788
525.1394    0.16354908693349735
527.1391    0.011103708638685322
543.1471    0.24559695245904442
544.1517    0.07916090127948888
545.1582    0.01829549531081843
561.1594    0.5385640342335879
562.1623    0.17810348656451255
563.1637    0.04246741488580263
579.17      1.0


