PRECURSORMZ: 299.05611210399996
COMPOUNDNAME: challenge-061
FORMULA: C16H12O6
SMILES: c1(c(c(c2c(c1)oc(cc2=O)c1ccc(cc1)O)O)OC)O
INCHIKEY: IHFBPDAQLQOCBX-UHFFFAOYSA-N
PRECURSORTYPE: [M-H]-
IONMODE: negative
CHARGE: -1
PARENTMASS: 300.06338810399996
NUM PEAKS: 42
108.9847    0.002199752613491131
137.9818    0.004550267088343025
141.0243    0.0026657438213334886
164.0101    0.007938982563020171
164.9837    0.0023265296332717726
165.9801    0.004008894949820286
167.0272    0.0024807179005725526
184.0534    0.01593621402702064
185.0225    0.011663485819819018
199.0381    0.01288328633446519
200.0482    0.028888028480286175
212.0483    0.04289174955713703
213.0468    0.00806918598874083
214.0228    0.007318803087877033
215.0181    0.0022785599501115297
216.0264    0.004762704256624099
229.0392    0.006482760038512803
266.014     0.00353947733603791
283.0262    0.08157244621399276
283.7668    0.0025595252371929515
284.0326    1.0
284.2698    0.01858482581865404
284.617     0.009220458384586657
284.7395    0.007339361523517137
285.0379    0.20848309582629496
285.2456    0.012674275572124132
285.3604    0.012177446710821618
285.5172    0.012043816879160943
285.65      0.011714881908919277
285.7764    0.01469928148267438
286.0391    0.04657513594265567
286.207     0.006643801117693618
286.2475    0.006530729721673046
286.4342    0.006064738513830688
286.5478    0.0056227321475684515
286.7553    0.0044269164745024
287.0253    0.006938472028535109
287.3521    0.003823869029059349
287.7215    0.003100897375715691
288.3687    0.001898228890769605
288.5483    0.001805715930389137
299.0567    0.39767895261623226


