PRECURSORMZ: 611.233431896
COMPOUNDNAME: challenge-165
FORMULA: C29H38O14
SMILES: C1(C(C(C(C(O1)Oc1c2ccccc2c(OC2C(C(C(C(O2)CO)O)O)O)c(c1C(=O)OC)CC=C(C)C)O)O)O)CO
INCHIKEY: OZDABLANSWPSGY-UHFFFAOYSA-N
PRECURSORTYPE: [M+H]+
IONMODE: positive
CHARGE: 1
PARENTMASS: 610.2261558959999
NUM PEAKS: 74
69.0649     0.029395686751661994
85.019      0.033786524184873656
127.0309    0.026098150205434763
145.0489    0.049480682078682406
163.0539    0.035990759844116454
171.0394    0.5282053994956709
199.0401    0.8492479147930664
199.7903    0.008146854996561393
200.0383    0.11183410040734276
201.0522    0.02548096422084678
209.0949    0.08150381773616182
211.0279    0.019749951506815498
215.0701    0.022148159904071665
217.0176    0.01960888042462396
219.0665    0.34304960411927565
220.0719    0.057715706501613506
227.0994    0.032375813362958264
231.0653    1.0
231.7577    0.009469396392107074
232.0702    0.17251229963497858
237.0885    0.26713572801495356
238.0881    0.05616392459750657
243.0683    0.017245939797915676
251.5455    0.002116066232873089
253.0685    0.02978363222768873
254.1005    0.052760584739635685
255.1052    0.23908021654411118
256.1156    0.045107478530744684
267.0933    0.023505969070165233
269.1183    0.2445819887495812
270.1263    0.05662240561462908
271.1344    0.027173817207145252
272.1224    0.00864060378423178
286.1208    0.030347916556454885
287.1276    0.5604401417764376
288.133     0.11419704103405104
288.3243    0.005237263926360895
288.7536    0.00548413832019609
289.1338    0.018762453931474726
325.1115    0.06588019538344884
325.5816    0.0016928529862984712
326.0235    0.030206845474263347
326.1209    0.009487030277381016
345.0904    0.010933008869844293
368.038     0.021460438378387913
379.036     0.014001304907510274
394.0485    0.009892609638681691
399.1215    0.010456893967447848
417.1552    0.056869280008464265
418.1534    0.016187906681479132
431.1777    0.002539279479447707
449.1798    0.41162778394963767
450.1856    0.1080251811881712
450.4971    0.004514274630129257
450.7371    0.003791285333897618
451.1903    0.02936041898111411
451.6579    0.003791285333897618
452.1842    0.006348198698619267
470.0678    0.11208097480117796
471.0739    0.0940944118217567
472.0847    0.029078276816731034
473.0731    0.01587049674654817
487.1679    0.022500837609550513
502.0953    0.03997601791602744
503.1039    0.039923116260205616
504.1091    0.008305559964026875
505.0998    0.01528857853250807
506.0977    0.0052019961558130105
507.1079    0.007265160732864273
562.1066    0.04997443086635278
563.1083    0.02057874411469079
579.2058    0.015182775220864413
594.1234    0.004655345712320796
611.2319    0.15024070253398933


