PRECURSORMZ: 357.13326436
COMPOUNDNAME: challenge-173
FORMULA: C20H20O6
SMILES: C1(C(C(C1C(=O)OC)c1ccc(cc1)O)C(=O)OC)c1ccc(cc1)O
INCHIKEY: OEWCQSJKSNWJTH-UHFFFAOYSA-N
PRECURSORTYPE: [M+H]+
IONMODE: positive
CHARGE: 1
PARENTMASS: 356.12598836
NUM PEAKS: 50
85.0202     0.0496090973702914
91.0533     0.016787491115849325
105.0338    0.0255863539445629
107.0504    0.023894811656005686
113.0225    0.39516702203269366
120.0717    0.011144278606965175
171.0133    0.014029850746268658
172.0       0.03536602700781805
178.0631    0.03141435678749112
206.0123    0.012082444918265814
210.099     0.02365316275764037
212.0838    0.08823027718550107
231.0335    0.02736318407960199
236.0101    0.027022032693674484
236.0747    0.027221037668798864
237.0923    0.6464392324093816
238.092     0.12092395167022034
247.0765    0.21519545131485432
252.0988    0.009680170575692962
265.0881    0.4251457000710732
266.0942    0.09336176261549395
267.1084    0.01650319829424307
270.1077    0.010732054015636105
271.1171    0.006510305614783226
275.0745    0.03808102345415778
276.0687    0.01503909026297086
278.0005    0.0483724235963042
278.5303    0.0013503909026297085
279.0064    0.026552949538024166
293.0831    0.34169154228855725
294.088     0.07749822316986497
295.0977    0.05930348258706467
311.0969    0.0070362473347547975
324.6772    0.0023596304193319122
324.9522    0.0038805970149253734
325.1067    1.0
325.7189    0.004051172707889125
326.1129    0.24533049040511729
326.3161    0.005785358919687279
326.5966    0.006069651741293532
326.6224    0.0062260127931769715
326.8427    0.007491115849324805
327.1208    0.046126510305614786
327.353     0.004065387348969439
327.6481    0.0048187633262260126
327.8368    0.005842217484008529
328.1291    0.013560767590618337
328.4675    0.0026865671641791043
328.743     0.0035252309879175553
357.1341    0.27704335465529495


