PRECURSORMZ: 493.31707781199987
COMPOUNDNAME: challenge-059
FORMULA: C28H46O7
SMILES: [C@H]1([C@@H](C[C@@H]2[C@](C1)(C1C(=CC2=O)[C@]2([C@](CC1)([C@H](CC2)[C@](O)(C)[C@@H](C[C@H](C(C)(C)O)C)O)C)O)C)O)O
INCHIKEY: IJRBORPEVKCEQD-UHFFFAOYSA-N
PRECURSORTYPE: [M-H]-
IONMODE: negative
CHARGE: -1
PARENTMASS: 494.32435381199986
NUM PEAKS: 38
97.0641     0.011262118064119659
173.118     0.05062518550723426
174.1181    0.005973855498747956
301.182     0.018774377218248477
302.1809    0.004013226927080503
319.1923    0.05795350509387188
381.2434    0.0023452294855126686
459.2722    0.00244974060340539
475.3067    0.011964432776358749
476.2984    0.004172083826277439
491.3       0.0050750598848705525
492.3093    0.0018770196773532767
493.3175    0.9057727761079224
493.5942    0.009631744624993206
493.8688    0.0036286260132352877
494.0772    0.011558929638934989
494.3211    0.2810805613501164
494.7011    0.02106108047774122
494.8429    0.007244710692323449
494.9075    0.008327445873692042
495.3214    0.06591725227729725
495.5214    0.011145065612079813
495.549     0.011178509169805482
495.7349    0.006182877734533399
495.9464    0.005463841243431475
496.3182    0.015037059642404758
496.7333    0.004912022540957907
497.0422    0.0038919940303249454
497.4429    0.004611030521426869
497.7011    0.0033736188855770476
497.9643    0.0026420410603279977
498.4417    0.002416297045679719
509.3017    0.003248205544105782
528.841     0.0008068258301318094
529.292     0.014497782274078316
530.2967    0.004882759427947945
531.282     0.00629156929714183
539.3225    1.0


