PRECURSORMZ: 335.22278350399995
COMPOUNDNAME: challenge-067
FORMULA: C20H32O4
SMILES: C1CC(C2C(C1)(C(C(=C)CC2)CCC(CC(=O)O)C)C)(C(=O)O)C
INCHIKEY: HPQKNJHVWUWAOR-UHFFFAOYSA-N
PRECURSORTYPE: [M-H]-
IONMODE: negative
CHARGE: -1
PARENTMASS: 336.23005950399994
NUM PEAKS: 11
204.1012    0.0010292047853624209
266.1083    0.0044422941590429275
275.1961    0.0032710867598270835
276.185     0.0007426862370563989
291.2252    0.004001206393887604
292.2056    0.0008934854730069366
317.2107    0.023128832813913744
318.2174    0.005636121443651352
329.4588    0.000681109882376596
330.599     0.0006785965617774203
335.2226    1.0


