PRECURSORMZ: 303.051026724
COMPOUNDNAME: challenge-082
FORMULA: C15H12O7
SMILES: c1cc(c2c(c1O)c(=O)c1c(c(c(cc1O)O)OC)o2)OC
INCHIKEY: MXKGQHAVANZONW-UHFFFAOYSA-N
PRECURSORTYPE: [M-H]-
IONMODE: negative
CHARGE: -1
PARENTMASS: 304.058302724
NUM PEAKS: 44
117.035     0.00689787951615259
129.0248    0.014379987518755062
177.0194    0.1010316943953899
201.0191    0.14451024391539308
202.0224    0.020627248947724827
217.0145    0.15336661665316745
229.0149    0.09106661532537544
230.0113    0.013138501985049062
245.0086    0.8725186886726063
245.5355    0.005795812143985766
246.4213    0.00910865322055953
246.7475    0.008311978011764237
247.2443    0.0054240303798812955
248.0085    0.004534409730059883
259.0251    0.008325255931910826
273.0018    0.9799968132991648
273.6498    0.00686468471578612
274.0109    0.16814494177632014
274.2551    0.009819021948402002
275.5706    0.005065526535923412
275.982     0.006599126312854355
287.0304    0.060387980826683306
287.8598    0.00422237860661506
288.0266    1.0
288.3121    0.017480381872983418
288.5847    0.005736061503326119
288.7773    0.011014034761594944
288.8646    0.011326065885039767
289.0331    0.22279022213960406
289.2407    0.01025055435316612
289.3244    0.01009121931140706
289.5108    0.011027312681741532
289.5395    0.010708642598223414
290.0323    0.0429009599936266
290.2337    0.007986668968172825
290.5511    0.0070704924780582365
290.8606    0.004733578532258706
290.9797    0.00904226361982659
291.0429    0.009307822022758355
291.2139    0.003731095561191295
291.4196    0.0041891838062485896
291.6258    0.0034854540384794126
291.8264    0.003970098123829883
303.0514    0.4423605486436605


