PRECURSORMZ: 491.1759170199998
COMPOUNDNAME: challenge-151
FORMULA: C21H30O13
SMILES: [C@@]12([C@H]([C@@H](OC=C1)O[C@H]1[C@@H]([C@H]([C@@H]([C@H](O1)CO)O)O)O)C(=CC2=O)C)O[C@H]1[C@@H]([C@@H]([C@H]([C@@H](O1)C)O)O)O
INCHIKEY: WDMQLCVSWBENIY-UHFFFAOYSA-N
PRECURSORTYPE: [M+H]+
IONMODE: positive
CHARGE: 1
PARENTMASS: 490.1686410199998
NUM PEAKS: 55
71.0389     0.03396644946624151
79.0576     0.047414390683488156
81.0656     0.12373492305559407
83.0431     0.15187855261333705
85.0213     0.1303895743795924
91.0566     0.06148620546235963
109.0614    0.25544156384306116
110.0431    0.033342575904616666
111.0398    0.176070982947456
129.0531    0.18743934562595313
137.0596    0.8168584500207959
138.0577    0.1292804658255927
147.051     0.396090392347151
148.0543    0.06675447109385832
165.0553    1.0
166.0571    0.1368362678497158
183.0607    0.17024816303895746
184.0557    0.03098572022736726
239.0808    0.07451823097185638
255.0808    0.07611257451823097
257.0636    0.07736032164148066
257.0839    0.07798419520310551
273.0976    0.07645917094135589
275.0923    0.08214335228060447
275.9894    0.15388881186746153
276.0173    0.1476500762512131
288.0019    0.05517815056148621
290.01      0.3140856786357965
291.0042    0.07971717731873007
293.1066    0.36080687647303483
294.1078    0.07521142381810621
309.1152    0.18099265215582977
310.1183    0.03750173298211563
311.1147    0.13253847220296686
312.1106    0.033134618050741714
327.1065    0.024192430334118952
329.1219    0.21551365589907112
330.12      0.03971995009011507
345.1138    0.021627616802994593
353.031     0.1036323305143491
362.0234    0.04290863718286427
363.0176    0.07167614030223209
364.0113    0.039096076528490224
380.0267    0.1965894911964509
381.0293    0.19991681685845003
382.0246    0.0492166920837377
383.0547    0.044017745736864
398.0247    0.04429502287536393
399.0361    0.07250797171773188
401.0484    0.02252876750311937
419.1426    0.020033273256619993
455.1628    0.07819215305698045
456.184     0.023360598918619163
473.1657    0.0408290586441148
491.1757    0.19125190628032718


