PRECURSORMZ: 217.13353913199998
COMPOUNDNAME: challenge-021
FORMULA: C13H16N2O
SMILES: CC1c2c(ccc3c2c(CCN1C)c[nH]3)O	
INCHIKEY: XQOAEAAPVIEAEK-UHFFFAOYNA-N
PRECURSORTYPE: [M+H]+
IONMODE: positive
CHARGE: 1
PARENTMASS: 216.126263132
NUM PEAKS: 24
129.0693    0.01
131.0849    0.027999999999999997
141.0665    0.016
143.073     0.011000000000000001
144.0524    0.013999999999999999
145.0879    0.01
146.0609    0.039
147.0677    0.035
148.0772    0.038
158.0918    0.061
159.0757    0.1
160.0773    0.035
160.1123    0.066
168.0807    0.013999999999999999
169.0893    0.012
170.055     0.03
171.068     0.155
173.0829    0.012
174.0914    0.17800000000000002
176.1065    0.222
186.0911    0.828
188.107     1.0
202.1109    0.012
217.1337    0.797


