PRECURSORMZ: 411.1802145519999
COMPOUNDNAME: challenge-221
FORMULA: C24H26O6
SMILES: c1(c(cc2c(c1CC=C(C)C)oc1c(c2=O)c(cc(c1CC=C(C)C)O)O)O)OC
INCHIKEY: CJBZJZGULKATPY-UHFFFAOYSA-N
PRECURSORTYPE: [M+H]+
IONMODE: positive
CHARGE: 1
PARENTMASS: 410.1729385519999
NUM PEAKS: 36
206.0223    0.0005719702162725526
225.5138    0.00013857010394231946
226.5278    0.00015625990444559427
227.516     0.00013857010394231946
272.0679    0.012113090894617437
329.0669    0.006929979347157913
330.0679    0.0014535119413524146
353.1036    0.0033802260461674315
354.5627    0.0011026642313707975
354.741     0.0013753819891296176
354.9456    0.0017763508005371803
355.1171    1.0
355.6057    0.0037340220562329276
355.6551    0.005245025849220986
355.8728    0.004059809215501572
355.9662    0.005542804157692778
356.1216    0.2619240311517387
356.3047    0.0071614209037424255
356.3432    0.007174688254119881
356.5389    0.006231232227278557
356.8681    0.006369802331220877
357.1235    0.039328848968905754
357.3607    0.009194273811577091
357.4459    0.007201222954874793
357.6391    0.005612089209663938
357.7372    0.005066653694146298
357.9651    0.0064420356832759155
358.1317    0.008258188534945464
358.5351    0.001370959539003799
359.08      0.0014992105926525414
359.2873    0.0031251980889118857
359.5671    0.0008948090754573182
385.13      0.005464674205469981
386.1238    0.0014815207921492666
401.1131    0.0005822892665661297
411.1782    0.2847143908001244


