PRECURSORMZ: 266.089477896
COMPOUNDNAME: challenge-025
FORMULA: C10H13N5O4
SMILES: C1C(C(CO)OC1n1c2c(c(N)ncn2)nc1O)O	
INCHIKEY: NDWAUKFSFFRGLF-UHFFFAOYNA-N
PRECURSORTYPE: [M-H]-
IONMODE: negative
CHARGE: -1
PARENTMASS: 267.096753896
NUM PEAKS: 9
134.0462    0.166
148.0626    0.027000000000000003
149.0389    0.031
150.0423    0.046
176.0573    1.0
190.0738    0.037000000000000005
192.0884    0.015
218.0688    0.25
266.0897    0.8170000000000001


