PRECURSORMZ: 329.17473524799993
COMPOUNDNAME: challenge-159
FORMULA: C20H24O4
SMILES: c1c(ccc(c1)CCC(CC(=O)CCc1ccc(cc1)O)OC)O
INCHIKEY: PASZRDILCDRSOZ-UHFFFAOYSA-N
PRECURSORTYPE: [M+H]+
IONMODE: positive
CHARGE: 1
PARENTMASS: 328.16745924799994
NUM PEAKS: 64
77.0334     0.02387568555758684
79.0487     0.01874466788543571
105.0672    0.1562096282754418
106.0724    0.016843388177940278
107.048     0.5913833028641072
107.454     0.004119439366240097
107.6758    0.005143205362583791
108.049     0.048641072516758074
121.0658    0.017867154174283972
133.064     1.0
133.5583    0.005350396099939062
133.7378    0.006776355880560634
133.7741    0.006776355880560634
134.0676    0.1282388787324802
134.2178    0.004302254722730043
147.0804    0.01393053016453382
149.0595    0.03227300426569165
150.0655    0.004850700792199878
159.0841    0.015003046922608164
161.9867    0.012687385740402193
162.0756    0.00829981718464351
165.0911    0.017343083485679464
166.0765    0.003960999390615478
175.5279    0.0011700182815356488
177.0889    0.09308957952468007
177.9964    0.007641681901279708
178.0948    0.02051188299817185
181.0847    0.012821450335161487
184.0437    0.005691651432053626
185.0924    0.02558196221815966
189.0808    0.013759902498476539
190.075     0.008104814137720903
191.1071    0.09304082876294942
192.1068    0.013650213284582572
199.0777    0.006057282145033516
203.0192    0.020195003046922608
203.069     0.020633759902498477
219.0108    0.051188299817184646
221.0148    0.015332114564290067
237.0341    0.019475929311395492
245.0291    0.025655088360755637
277.0568    0.02809262644728824
278.0957    0.009701401584399756
278.1215    0.008957952468007313
279.1383    0.04938452163315052
280.1412    0.011748933577087143
281.0237    0.004704448507007923
295.0858    0.0075807434491163925
296.1411    0.010968921389396709
297.1483    0.19882998171846436
297.629     0.0016209628275441804
297.9736    0.0023522242535039613
298.1524    0.04586227909811091
298.3059    0.0014747105423522243
298.5709    0.0014747105423522243
298.7642    0.002937233394271786
299.1595    0.01711151736745887
299.5262    0.0014747105423522243
299.9445    0.0016209628275441804
300.181     0.002937233394271786
300.4088    0.0007312614259597807
310.1598    0.005898842169408897
325.054     0.08400975015234613
329.1751    0.34727605118829985


