PRECURSORMZ: 405.30103382399994
COMPOUNDNAME: challenge-111
FORMULA: C25H42O4
SMILES: C1C=C(C2(C(C1)C(C(CC2)C)(CCC(CC(=O)O)C)C)C)COC(=O)CC(C)C
INCHIKEY: FISIJWVRKFHLSM-UHFFFAOYSA-N
PRECURSORTYPE: [M-H]-
IONMODE: negative
CHARGE: -1
PARENTMASS: 406.30830982399993
NUM PEAKS: 5
101.0596    0.030374726219538982
303.2328    0.24914178846890045
304.2363    0.06032270008723321
304.883     0.004060423112405315
405.3014    1.0


