PRECURSORMZ: 787.099946536
COMPOUNDNAME: challenge-113
FORMULA: C34H28O22
SMILES: O(C(=O)c1cc(c(c(c1)O)O)O)[C@@H]1[C@@H](OC(=O)c2cc(c(c(c2)O)O)O)[C@H](OC(=O)c2cc(c(c(c2)O)O)O)[C@H](O[C@H]1OC(=O)c1cc(c(c(c1)O)O)O)CO
INCHIKEY: XFLTYUCKJRFDOU-UHFFFAOYSA-N
PRECURSORTYPE: [M-H]-
IONMODE: negative
CHARGE: -1
PARENTMASS: 788.107222536
NUM PEAKS: 28
167.0072    0.022457395538331596
169.0131    0.25821036418740995
170.0045    0.030009440055646642
295.0446    0.06319868832911014
301.0002    0.06160878422020172
391.9491    0.02653152481740945
392.0321    0.02484225170169424
392.5373    0.0017389576191185968
393.0426    0.012719232871267453
393.5431    0.001142743578277935
394.0448    0.0023351716599592587
394.2234    0.0005962140408406618
394.5084    0.0017389576191185968
394.7243    0.001142743578277935
395.3677    0.0017389576191185968
404.0297    0.001142743578277935
419.5       0.004024444775674467
419.9988    0.0005962140408406618
442.5009    0.001142743578277935
443.0128    0.0034779152382371937
465.0674    0.24027425845878672
617.0769    1.0
618.0813    0.3313459531971978
619.0794    0.09529487752769912
620.0752    0.023749192626819692
753.0631    0.025388781239131516
783.0684    0.032841456749639786
787.097     0.7657872509564266


