PRECURSORMZ: 405.1402356519999
COMPOUNDNAME: challenge-076
FORMULA: C17H26O11
SMILES: C12(C(C(OC=C1)OC1OC(C(C(C1O)O)O)CO)C(CC2O)(C)OC(=O)C)O
INCHIKEY: CAFTUQNGDROXEZ-UHFFFAOYSA-N
PRECURSORTYPE: [M-H]-
IONMODE: negative
CHARGE: -1
PARENTMASS: 406.1475116519999
NUM PEAKS: 14
59.0085     0.15866635138330573
71.0203     0.1477890754315441
89.0201     0.2757152991250887
119.0228    0.16907070229368645
161.0274    0.11113738472452117
161.0444    0.13927642468668716
165.0591    0.2636557105698747
179.0559    0.9387562071411681
180.0571    0.07968786947268859
183.0687    0.18751477890754314
345.1175    0.36722629463230083
346.1249    0.08512650744856941
347.1236    0.04823835422085599
405.1411    1.0


