PRECURSORMZ: 353.139447804
COMPOUNDNAME: challenge-066
FORMULA: C21H22O5
SMILES: c12c(c(c(cc1OC(CC2=O)c1ccc(cc1)OC)O)CC=C(C)C)O
INCHIKEY: ZTDRTMVBTLHQII-UHFFFAOYSA-N
PRECURSORTYPE: [M-H]-
IONMODE: negative
CHARGE: -1
PARENTMASS: 354.146723804
NUM PEAKS: 70
95.0212     0.0008901432164531589
105.0471    0.0008694422114193644
108.0243    0.0024358182589764733
109.062     0.0016336543139169408
117.0318    0.0009194696402510342
122.0087    0.0009039438864756884
131.0918    0.0013041633171290467
132.0258    0.000952246231554542
134.0602    0.0011230295230833457
145.0282    0.0012696616420727225
148.0014    0.001904492463109084
151.0768    0.006605345689533227
152.0841    0.0008314903688574081
158.0311    0.0010160743304087414
164.009     0.01379376968751833
164.9999    0.0019303687194013272
176.009     0.009344778689005353
187.0186    0.0019234683843900623
188.0519    0.0011903077894431775
190.0628    0.008846229484441468
191.0694    0.005290831869887283
193.0772    0.0013300395734212895
199.071     0.0021149526809526604
202.0519    0.0013835171697585919
204.0792    0.006013641962317271
205.0701    0.0014214690123205483
217.0503    0.004876811769211395
219.0661    0.03344592379960047
220.072     0.004743980320244548
225.0634    0.0030982504200578937
227.0638    0.00119375795694881
232.0745    0.0156861865643577
237.0702    0.001186857621937545
239.0717    0.0027308075807080437
240.0866    0.0011644315331509345
241.0491    0.0036761534772513206
245.0817    0.008868655573228081
246.0959    0.0009108442214869532
251.0978    0.003194855110215601
253.0555    0.0032138310314965795
254.0595    0.0011126790205664486
268.1195    0.0023150623962793393
269.0494    0.003877988276330816
280.0978    0.0010367753354425357
281.0842    0.0018061626891985607
282.0829    0.002761859088258735
283.0609    0.01657977994831649
284.0653    0.0035364216932732085
292.0927    0.0009505211478017259
293.1048    0.0016302041464113083
295.0619    0.031755341721840594
296.0646    0.006858933001197209
298.0887    0.007693873537560249
309.1497    0.011666741420295956
310.1277    0.004721554231457937
327.0898    0.007781852808953876
328.0933    0.0016215787276472274
335.1365    0.001818238275468274
337.1113    0.003003370813653003
338.1158    0.008906607415790036
339.1133    0.0019424443056710403
346.2564    0.0004381712732153146
346.4855    0.00042609568694560124
346.6615    0.0007297104274412523
346.8363    0.0006486314910588909
347.3813    0.0006244803185194642
347.7373    0.0006106796484969346
347.9421    0.0007762876887672897
348.2409    0.0004312709382040498
353.1395    1.0


