PRECURSORMZ: 437.1969626799999
COMPOUNDNAME: challenge-109
FORMULA: C26H30O6
SMILES: c1(c(c(c2c(c1)OCC(C2=O)c1c(c(c(cc1)O)CC=C(C)C)OC)O)CC=C(C)C)O
INCHIKEY: ARNVYCOTFWJTBS-UHFFFAOYSA-N
PRECURSORTYPE: [M-H]-
IONMODE: negative
CHARGE: -1
PARENTMASS: 438.2042386799999
NUM PEAKS: 59
133.0506    0.0015632415403797708
151.0347    0.0018013849741699427
162.0236    0.0021211775852596018
164.0104    0.003992304565039523
175.0427    0.0019374669363357551
176.0127    0.001893240298631866
178.0251    0.009820014594790441
179.0351    0.002432465073713898
192.0591    0.0010699444275287006
203.0389    0.0010342229124601747
205.083     0.003890243093415164
217.0553    0.0023235995039812478
219.068     0.008173422852584112
229.0833    0.005916163305158697
231.0849    0.0018030859986970153
232.0782    0.002981895995958366
233.0788    0.380117744917764
233.6609    0.0038426144066571297
234.0853    0.0821084539217971
234.2825    0.006941881094983509
234.6606    0.006816005279980132
235.1857    0.003757563180303497
236.328     0.0010495321332038288
236.6148    0.0011600987274635515
245.0825    0.0049703936681063
246.0942    0.0014662831423366295
295.0618    0.0018949413231589389
307.0781    0.00117200589915306
349.1109    0.0025940624037858
350.1154    0.008665018940908108
351.1254    0.0027590617829118475
352.1274    0.0010121095936082302
354.1057    0.0010342229124601747
361.1125    0.0016142722761919505
379.1243    0.006521728036796562
380.124     0.0020429304570142594
381.1237    0.0013370052782791075
404.1598    0.0010954597954347905
405.1707    0.08295216208722514
406.1748    0.023292128849205878
406.4465    0.0009083470974567983
406.4775    0.0009083470974567983
406.8919    0.0010342229124601747
406.9413    0.0010852536482723544
407.1735    0.006303996897331263
407.3556    0.0008522132880634006
407.7573    0.000677007761774917
407.8429    0.0009066460729297255
408.1607    0.0013046858122647271
408.2273    0.001216232536856949
411.1443    0.009804705374046789
412.1483    0.0032319466014380464
421.1657    0.0027148351452079586
429.1703    0.0007654610371826951
429.5078    0.0005732452656234851
429.9451    0.0005630391184610491
430.5438    0.0006021626825837202
430.7524    0.0005630391184610491
437.197     1.0


