PRECURSORMZ: 312.159419532
COMPOUNDNAME: challenge-003
FORMULA: C19H21NO3
SMILES: COc1ccc(CCN=C(/C=C/c2ccccc2)O)cc1OC	
INCHIKEY: YMZWKEYJSYDVKL-PKNBQFBNSA-N
PRECURSORTYPE: [M+H]+
IONMODE: positive
CHARGE: 1
PARENTMASS: 311.152143532
NUM PEAKS: 7
77.0405     0.013000000000000001
103.0561    0.136
131.0485    0.665
165.0929    0.07400000000000001
182.1173    0.023
295.1352    0.07
312.1592    1.0


