PRECURSORMZ: 265.14343512
COMPOUNDNAME: challenge-181
FORMULA: C15H20O4
SMILES: C1C(C(=C)CC2C(C(/C=C(/C1)\C)O)C(=C)C(=O)O2)O
INCHIKEY: KNEQPJSDSYNUHP-VURMDHGXSA-N
PRECURSORTYPE: [M+H]+
IONMODE: positive
CHARGE: 1
PARENTMASS: 264.13615912
NUM PEAKS: 56
67.0526     0.015144133170929759
81.0664     0.05968331303288672
91.0508     0.1413723101908242
93.0688     0.06666666666666667
95.0812     0.024685343077547706
105.0685    0.24153471376370278
107.081     0.07527405602923265
117.0636    0.09658952496954933
123.0353    0.04181892001624036
128.054     0.17673568818514007
129.0673    0.13934226552984166
131.0546    0.2229801055623224
131.08      0.22326431181485992
133.1005    0.5372310190824199
134.0958    0.07267559886317498
141.0675    0.14287454323995127
143.0796    0.3231019082419813
144.0909    0.04989849776695088
145.1004    0.14011368250101502
146.1012    0.028055217214778723
151.107     0.12614697523345514
152.0969    0.020868859114900527
153.0692    0.13796183516037352
155.0742    0.2269995939910678
156.0816    0.051969143321153065
157.091     0.1969549330085262
158.0768    0.037474624441737714
159.1034    0.09955339017458384
167.0752    0.0510353227771011
168.0713    0.20621193666260657
168.092     0.20576532683719043
173.1298    0.20499390986601704
174.1191    0.03589118960617134
183.1157    0.6912708079577751
184.1151    0.12630937880633375
185.1289    0.10629313844904588
187.0909    0.07880633373934226
189.0838    0.05692245229395046
193.0945    0.08331303288672351
201.128     0.6844904587900934
202.131     0.11839220462850183
203.1164    0.08850994721883881
211.1124    0.2519285424279334
212.1097    0.05014210312626878
219.138     0.17182298010556232
220.1286    0.0344295574502639
229.1223    1.0
230.126     0.17681688997157938
230.3368    0.011774259033698742
231.1342    0.05355257815671945
232.6435    0.0066585464880227355
247.1338    0.39484368656110436
248.1345    0.09882257409663013
249.1457    0.03524157531465692
256.0513    0.02785221274868047
265.1402    0.07880633373934226


