PRECURSORMZ: 493.13405220799984
COMPOUNDNAME: challenge-216
FORMULA: C23H24O12
SMILES: O([C@@H]1O[C@@H]([C@@H](O)[C@H](O)[C@H]1O)CO)c1c(c(c2c(c1)oc(cc2=O)c1cc(c(cc1)O)OC)O)OC
INCHIKEY: YFZSQPRYLBGYKE-UHFFFAOYSA-N
PRECURSORTYPE: [M+H]+
IONMODE: positive
CHARGE: 1
PARENTMASS: 492.12677620799985
NUM PEAKS: 8
257.9966    0.0009783493923657017
312.0648    0.004627328207135076
330.0742    0.010370503559076438
331.081     1.0
332.0882    0.22937798132145912
332.7275    0.005796059102880048
333.0953    0.043332945519159775
493.1345    0.2475752800194612


