PRECURSORMZ: 324.12303402399994
COMPOUNDNAME: challenge-036
FORMULA: C19H17NO4
SMILES: c1cc2c(c3CN4CCc5cc6c(cc5C4Cc13)OCO6)OCO2	
INCHIKEY: UXYJCYXWJGAKQY-UHFFFAOYSA-N
PRECURSORTYPE: [M+H]+
IONMODE: positive
CHARGE: 1
PARENTMASS: 323.11575802399994
NUM PEAKS: 14
91.055      0.06906906906906907
119.0495    0.07007007007007007
149.0601    0.2202202202202202
174.0553    0.05205205205205205
176.0703    1.0
176.9697    0.026026026026026026
188.0716    0.014014014014014012
219.084     0.01201201201201201
249.0925    0.026026026026026026
265.0868    0.01001001001001001
277.0869    0.02402402402402402
295.0957    0.01001001001001001
307.0981    0.025025025025025023
324.1232    0.5835835835835835


