PRECURSORMZ: 289.07066410399995
COMPOUNDNAME: challenge-030
FORMULA: C15H12O6
SMILES: c1c(cc(cc1O)O)[C@@H]1CC(=O)c2c(cc(cc2O1)O)O	
INCHIKEY: AYHOUUNTAVCXBN-ZDUSSCGKSA-N
PRECURSORTYPE: [M+H]+
IONMODE: positive
CHARGE: 1
PARENTMASS: 288.06338810399996
NUM PEAKS: 14
89.0358     0.047
107.0473    0.013000000000000001
111.0081    0.016
117.0665    0.07400000000000001
123.0368    0.02
135.0477    0.07200000000000001
145.0292    0.083
153.0196    0.473
159.048     0.017
163.0374    0.27
179.0313    0.038
187.0481    0.011000000000000001
253.0262    0.024
289.0713    1.0


