PRECURSORMZ: 231.14516643599998
COMPOUNDNAME: challenge-042
FORMULA: C9H18N4O3
SMILES: CC(=NC(CCCCNC(=N)N)C(=O)O)O	
INCHIKEY: HHYDHYFLWRDXDR-UHFFFAOYSA-N
PRECURSORTYPE: [M+H]+
IONMODE: positive
CHARGE: 1
PARENTMASS: 230.137890436
NUM PEAKS: 14
84.0814     0.19
109.0759    0.028999999999999998
126.0994    0.066
127.0872    0.166
128.071     0.017
129.1009    0.048
130.0884    0.017
144.1091    0.033
168.1116    0.013000000000000001
171.1133    0.028999999999999998
172.1078    0.054000000000000006
213.1262    0.023
214.1191    0.09300000000000001
231.1459    1.0


