PRECURSORMZ: 541.1140209039999
COMPOUNDNAME: challenge-093
FORMULA: C30H22O10
SMILES: Oc1ccc(cc1)C1Oc2cc(O)cc(c2C(=O)C1C1C(Oc2cc(cc(c2C1=O)O)O)c1ccc(O)cc1)O
INCHIKEY: RNQBLQALVMHBKH-UHFFFAOYSA-N
PRECURSORTYPE: [M-H]-
IONMODE: negative
CHARGE: -1
PARENTMASS: 542.1212969039999
NUM PEAKS: 40
57.0392     0.008878473082903305
64.9987     0.007672893616062374
107.0133    0.014241611645672309
125.0179    0.10238411789891161
126.028     0.012112130157514028
152.0039    0.010512202266940081
229.0495    0.05294409266061248
230.0536    0.007785564594271807
239.0714    0.042882574306510136
269.0458    0.03239290623521193
270.0497    0.01455709038465872
271.0648    0.013576852874236654
303.0871    0.01208959596187214
309.0409    0.3551727246095951
311.055     0.06593505644816008
312.0603    0.014433152308628343
330.084     0.005351871464948059
340.009     0.014174009058746648
341.0307    0.09111702007796832
342.0335    0.024900286184284654
345.1147    0.08137098046285239
347.0911    0.04027987470987223
359.0811    0.007143340018478041
371.093     0.4127137931811524
372.0969    0.1304504585708813
373.0896    0.044854316425175206
389.1025    0.03442098384298173
390.0818    0.039524979155869035
391.0835    0.03274218626766118
415.084     0.4201951461342588
416.0857    0.1413570092615544
417.0861    0.03829686549338621
417.5578    0.004811050769542782
431.1142    0.04830204835838385
434.0662    0.008157378822362936
435.0728    0.10914437659147758
436.075     0.0365729995267819
498.1259    0.04130518061157808
499.1262    0.014759898145435699
541.114     1.0


