PRECURSORMZ: 339.15908518399993
COMPOUNDNAME: challenge-002
FORMULA: C21H22O4
SMILES: C=C(C)C(C)c1cc(/C=C/C(=O)c2ccc(cc2)O)c(cc1O)OC	
INCHIKEY: SWPKMTGYQGHLJS-JXMROGBWSA-N
PRECURSORTYPE: [M+H]+
IONMODE: positive
CHARGE: 1
PARENTMASS: 338.15180918399994
NUM PEAKS: 22
65.0485     0.034
93.0358     0.073
107.0519    0.025
111.0472    0.026000000000000002
121.0289    0.523
147.0477    0.024
149.0613    0.01
177.0593    0.031
189.0788    0.012
191.11      0.057999999999999996
199.105     0.009000000000000001
203.1043    0.027999999999999997
219.1104    0.079
227.0974    0.032
229.0893    0.083
230.0937    0.024
245.1199    0.264
271.0984    0.081
283.102     0.040999999999999995
297.1499    0.684
307.1382    0.013999999999999999
339.1614    1.0


