PRECURSORMZ: 332.14924877199996
COMPOUNDNAME: challenge-167
FORMULA: C18H21NO5
SMILES: c12c(cc3c(c1)C14C(OC3)(CN(C1CC(C=C4)OC)C)O)OCO2
INCHIKEY: YLWAQARRNQVEHD-UHFFFAOYSA-N
PRECURSORTYPE: [M+H]+
IONMODE: positive
CHARGE: 1
PARENTMASS: 331.141972772
NUM PEAKS: 63
94.066      0.0004544943915098392
181.0635    0.11143556348860792
184.0834    0.0022181382176918005
204.0713    0.000601342337070369
211.0766    0.05056709005376838
212.0806    0.009058315521901271
214.0908    0.0042101305992203845
216.102     0.004184432208747292
230.0819    0.009131005254953733
234.0926    0.01816876206447653
240.7338    0.0006549418371999622
241.1033    0.018026319557282816
243.1034    0.01876569896318008
256.086     0.023233547706859196
256.1159    0.023088168240754273
257.0887    0.005286526040179067
257.6147    0.00031498884322733603
264.1038    0.051173572068933366
265.1082    0.009874055859490012
271.1206    0.05409878314449912
282.1176    0.06725268786808355
283.1161    0.014846327296169547
283.7283    0.00038033617900177174
284.1239    0.004310721441929347
284.6665    0.00034068723370042875
286.145     0.03717088622000907
313.503     0.0008546550431622825
313.5792    0.0009258762967591394
313.6853    0.0011219183040824465
313.8666    0.0015059256817232314
313.9868    0.0015624621407640353
314.1393    1.0
314.3524    0.003420088652104735
314.3742    0.003063248144392648
314.6422    0.002455297649772055
314.8678    0.007732278573489688
314.9451    0.00792685210135739
315.1435    0.23294930148103496
315.3129    0.007368829908227377
315.353     0.007388654380878048
315.5296    0.009689027448083745
315.5677    0.009765388379775222
315.7428    0.007833603655926454
315.8379    0.007304216812180743
315.9436    0.007251351551778954
316.1494    0.032025334207568104
316.3329    0.005669064938364247
316.4778    0.006101532138040006
316.6173    0.005287994519634673
316.8704    0.005735146513866485
317.1383    0.005694029089109536
317.3076    0.0031396090760841236
317.4135    0.000974336118794114
317.7182    0.0009713991598829036
317.7798    0.0009772730777053247
318.1906    0.0008708083171739407
318.2405    0.0008744795158129539
318.4482    0.0005088281313672351
318.6626    0.00047138190524930015
318.723     0.0007173522140631873
319.4456    0.00032967363778338903
327.5728    6.167613713542245e-05
332.1467    0.11715308824900714


