PRECURSORMZ: 517.3159797479999
COMPOUNDNAME: challenge-184
FORMULA: C30H44O7
SMILES: C1C(C(C2C(C1)(C1C(CC2)(C2(C(CC1)C1C(CC2)(CCC1C(=C)C)C(=O)O)C(=O)O)C)C)(C(=O)O)C)O
INCHIKEY: FTGKHGAVFGGOMW-UHFFFAOYSA-N
PRECURSORTYPE: [M+H]+
IONMODE: positive
CHARGE: 1
PARENTMASS: 516.3087037479999
NUM PEAKS: 104
68.3173     0.007628824713624751
68.5593     0.006863587666733379
95.0852     0.018565828045349123
111.0692    0.0283490893679142
145.0959    0.019813753075664284
149.1238    0.014692551300314334
159.1162    0.020932176451890137
161.128     0.01875419408766085
163.1393    0.021968189684604605
171.1162    0.026229971391907324
173.126     0.03815589644576824
175.1437    0.024075534782967
187.1093    0.04471338929374507
188.1657    0.0079349195323813
189.1603    0.024358083846434585
197.1107    0.014998646119070884
199.1474    0.02813717757031351
201.1636    0.024640632909902167
213.1633    0.03277569136223967
215.1827    0.025241049669770782
225.1526    0.02006098350619842
227.1706    0.017529814812634652
231.1685    0.023628165432476658
237.1521    0.015033964752004332
239.1764    0.026194652758973876
241.1722    0.014845598709692608
247.1676    0.01265584346781884
253.1777    0.013409307637065729
259.1681    0.023969578884166655
261.1859    0.03388234186082104
265.1882    0.02278051824207391
266.187     0.010336586571855757
267.2037    0.03780271011643376
268.2193    0.007640597591269234
269.2191    0.028090086059735578
277.1766    0.02706584570466559
279.199     0.03395297912668793
281.2189    0.013397534759421244
282.6204    0.002519395815919285
283.6254    0.002519395815919285
285.1705    0.018318597614814986
295.2115    0.017635770711434996
297.2151    0.017894774019613615
298.6333    0.0012596979079596425
306.6294    0.0015304740937827433
307.1229    0.004049869909702028
311.1946    0.029385102600628668
312.1903    0.011761104766838159
313.1992    0.02893773325013833
325.2144    0.026583157721241802
327.2249    0.027760445485690066
339.2214    0.016611530356365006
361.2876    0.10454315348300584
362.293     0.035353951566381374
363.2959    0.03477708056180172
364.2914    0.00865306506869474
371.2653    0.021579684722336682
379.2923    0.15073992535995573
380.3018    0.04148762081915682
389.285     0.10709786793185859
390.2863    0.03615450724620619
392.2713    0.01927220070401808
407.2938    0.6263053178088319
408.2985    0.22261334337952227
408.669     0.005945303210463733
409.3095    0.1299254776845104
410.3048    0.0375083881753217
417.2844    0.026995208438798695
418.2774    0.007852509388869921
425.3054    0.4156767638713931
426.3095    0.13891995620489517
435.2907    0.15294145347947397
436.2953    0.05228334961914741
453.3002    0.9122685157933152
454.3054    0.32282407788935846
454.5311    0.00628671666215373
454.7338    0.00815860420762647
454.7781    0.008040875431181644
455.0531    0.007134363852556481
455.0838    0.007464004426601994
455.3126    0.07316843456045961
455.5381    0.006993089320822688
455.7363    0.00811151269704854
455.8368    0.0075110959371799246
456.3082    0.011655148868037814
463.2823    0.04905758114455916
464.2793    0.016128842372941217
471.3103    1.0
472.315     0.3371752157379828
472.5612    0.004650286669570643
472.8861    0.005921757455174767
473.0407    0.006887133422022344
473.3223    0.07041358119165067
473.5364    0.005921757455174767
473.8357    0.007122590974911997
474.331     0.014986873241426401
481.2953    0.1246630013774267
482.2992    0.04305341354587301
483.2968    0.012702934978396769
499.3052    0.05726327686276356
500.3107    0.019366383725173943
501.3106    0.008323424494649227
508.2353    0.010148220529544037
517.3145    0.01929574645930705


