PRECURSORMZ: 317.21112075599996
COMPOUNDNAME: challenge-171
FORMULA: C20H28O3
SMILES: C1CC(C2C(C1)(C1=CC(=O)C(CC1CC2)(C=C)C)C)(C)C(=O)O
INCHIKEY: VNOMXNULTAUIDL-UHFFFAOYSA-N
PRECURSORTYPE: [M+H]+
IONMODE: positive
CHARGE: 1
PARENTMASS: 316.20384475599997
NUM PEAKS: 92
77.018      0.0039161236463140315
81.0672     0.010368596804489483
91.0523     0.02226769937156506
95.0799     0.016592073835308304
97.0732     0.003089998376736312
105.0691    0.03662778563643531
106.0734    0.0036088630197342484
107.0843    0.04193817684298402
108.0838    0.0046205041393224035
109.1002    0.02469389884748278
110.0628    0.0027363587876539203
111.0816    0.004081348700229576
113.0858    0.0026001205853025066
121.1008    0.059837557683834613
123.1068    0.012844073928066229
131.0854    0.06357396285045103
133.092     0.037149548964589656
134.0986    0.004803121304176425
135.1054    0.04756162604642534
137.0948    0.010487442895902418
145.1012    0.055625768151566446
147.1055    0.04640505066901653
149.0985    0.07299468960879345
150.0996    0.008904760800500892
151.1066    0.008101825012174477
157.1015    0.026407021774922892
159.1169    0.05341986874753612
161.1287    0.03442768360271781
163.1118    0.05541706282030471
164.0958    0.005924912459708276
167.0995    0.005803167683138928
169.101     0.014322403357836886
171.1197    0.06377397212624353
172.1143    0.009125060872388284
173.1327    0.047260162790158385
174.1237    0.007806159126220347
175.1241    0.014238341488300906
183.1157    0.018055909839296894
183.5755    0.0006232173086288059
184.5879    0.0007101778633211975
185.5973    0.0008319226398905456
189.1159    0.031186953597848018
191.0938    0.006832200913665561
193.1224    0.014902140389119495
195.1155    0.006330728381606103
197.133     0.037526378034923355
199.1505    0.034714653433202694
200.1536    0.0060901375136238195
201.1545    0.021798112376226142
203.091     0.011017902279526008
205.1201    0.00858010806298263
206.5889    0.002200102033717506
207.1227    0.04671810866590914
207.5843    0.0013246991164807644
208.5751    0.0007913410477007629
211.1488    0.020745889664448208
212.1502    0.0039161236463140315
213.162     0.028453493495350507
215.1792    0.08358648517032673
216.1781    0.01721818982909352
219.1404    0.011377339238921225
220.0717    0.0029276720079771815
227.1797    0.01789938084085059
227.5979    0.00035653827423880527
228.1136    0.0036320525009855527
228.1646    0.0036320525009855527
228.6062    0.0004985738469030447
229.1833    0.02759838137420866
230.1883    0.005174153004197296
231.1364    0.005061104283097187
243.2033    0.11640249982607888
244.2061    0.026314263849917675
245.1526    0.016525404076710805
246.1638    0.0028146232868770725
248.126     0.004866892377617513
253.1956    0.1151154836166315
254.1967    0.02616643090694061
257.1702    0.013739767641397862
271.2055    0.2333905340537532
272.2123    0.05822299005171254
272.4663    0.001924726943858266
273.2053    0.011664309069406116
275.1718    0.03172321035178443
276.1589    0.005837951905015884
281.1654    0.026922987732764414
281.1834    0.02639542703429724
287.0875    0.00277404169468729
289.2165    0.06829592097024789
290.2173    0.015829719639171673
299.201     0.09238399462004035
300.2054    0.02178361895044408
317.2115    1.0


