PRECURSORMZ: 495.18608777999975
COMPOUNDNAME: challenge-204
FORMULA: C24H30O11
SMILES: c1c(ccc(c1)COC(=O)C(C(O)C)(Cc1ccc(cc1)O)O)OC1OC(C(C(C1O)O)O)CO
INCHIKEY: FKMASXTUONWHBB-UHFFFAOYSA-N
PRECURSORTYPE: [M+H]+
IONMODE: positive
CHARGE: 1
PARENTMASS: 494.17881177999976
NUM PEAKS: 37
107.0481    1.0
108.0489    0.08170344674883755
119.0509    0.16680197800575688
121.0633    0.3837183555981991
193.0823    0.1496789430954314
213.0934    0.39368219056756953
214.0913    0.07247767362905011
225.0919    0.36541442172854083
226.0933    0.06487563657834526
239.0905    0.18901763967820503
240.0877    0.04037198317218983
251.1125    0.08030112923462986
269.1149    0.1023691785371614
270.1169    0.021846630747656654
287.1234    0.029817698723152996
299.1301    0.4552365488227913
300.1329    0.09166728171820798
322.0188    0.018377740054616575
324.0237    0.09447191674662336
333.1328    0.12834895564248283
334.1271    0.019706251383865968
335.1213    0.04288139346077201
345.133     0.4136836666912687
346.1357    0.09690752085024726
347.1433    0.03358181415602627
396.0324    0.04015056461731493
398.0288    0.2871798656727434
399.0359    0.12148498044136097
399.1446    0.03926489039781533
400.1179    0.022732304967156246
423.145     0.021846630747656654
433.0551    0.012251826703077718
439.172     0.06266145102959628
440.1824    0.01616355450586759
443.063     0.12310871651044357
487.1782    0.025241715255738432
495.1854    0.033434201786109674


