PRECURSORMZ: 355.15399980399997
COMPOUNDNAME: challenge-166
FORMULA: C21H22O5
SMILES: c12c(c(c(cc1OC(CC2=O)c1ccc(cc1)OC)O)CC=C(C)C)O
INCHIKEY: ZTDRTMVBTLHQII-UHFFFAOYSA-N
PRECURSORTYPE: [M+H]+
IONMODE: positive
CHARGE: 1
PARENTMASS: 354.146723804
NUM PEAKS: 61
53.042      0.0009722011683904897
55.016      0.004993644981867793
68.9983     0.003366993551697198
79.0244     0.00407974673212141
81.0374     0.0055125409578003475
105.0692    0.0027533553329679686
109.0153    0.002558040555510209
121.065     0.015206858755349292
124.0229    0.002247577513730337
135.0837    0.03178529367180121
137.0271    0.012615294021618723
153.0399    0.0017884420294079922
161.0608    0.01272752714000863
163.0492    0.0032052029524598
164.8756    0.0014954698632213528
165.0196    0.7162892524399772
165.2271    0.004702130388647256
165.6423    0.008121596567124151
166.023     0.06093966813978707
166.1858    0.004824566517799881
166.7193    0.005515456103732553
167.0277    0.011666414020685875
167.3146    0.0009649133035599763
167.9642    0.0013409671288144684
191.0347    0.045607458109352954
192.0436    0.00632878181881785
193.0126    0.0013293065450856471
197.0112    0.0005261838407630686
197.5181    0.00047808393288168
198.5212    0.0002842267283900232
205.0577    0.0036410172693245027
219.0728    0.011551265756363765
221.084     0.030310229830105298
222.0956    0.00718146200398792
225.5515    0.00023175410161032663
239.0666    0.0016951573595774204
258.0844    0.0015625182196620764
281.085     0.007197495306615049
287.1033    0.005307023169579869
298.6683    0.0008337317366107349
298.96      0.001168973518814352
299.0913    0.5458421273568954
299.4271    0.0020551778822047832
299.5532    0.0038771440898331374
299.6124    0.004088492169918027
299.8468    0.0038028078685619
299.9138    0.0030667335206800454
300.0956    0.11707517578329972
300.3017    0.0045622033839013984
300.3367    0.004467461141104724
300.6549    0.004945545073986404
300.8692    0.0030186336127986566
301.1037    0.021477337655523038
301.302     0.004238622185426603
301.3513    0.00413950722373162
301.4958    0.0028816217539850046
301.6786    0.0014284215067806294
301.8185    0.002225713919238797
302.6694    0.0008541377581361724
329.1019    0.001256427896780513
355.1538    1.0


