PRECURSORMZ: 407.13365828399986
COMPOUNDNAME: challenge-240
FORMULA: C20H22O9
SMILES: c1(cc(c2c(c1)OC(C(C2)O)c1ccc(cc1)O)O)OC1OC(C(C1O)O)CO
INCHIKEY: XWFQRXGYJJOFCO-UHFFFAOYSA-N
PRECURSORTYPE: [M+H]+
IONMODE: positive
CHARGE: 1
PARENTMASS: 406.1263822839999
NUM PEAKS: 28
107.0482    0.15626124145649306
108.0474    0.018386026619768975
139.0392    1.0
140.0391    0.11469283344658059
149.0589    0.29465606139334105
150.0562    0.034973420200647504
169.0526    0.032715136496262835
191.0716    0.08771333786322394
251.9694    0.014109276949518364
257.082     0.04034933450577561
271.0829    0.023442183940205443
275.0919    0.9718414005355929
275.8052    0.005995443462968144
276.0992    0.20248611055597746
276.2491    0.0066149726208081855
276.4617    0.007354410647907589
276.7294    0.00791398537111795
277.0979    0.03095647308045885
277.5318    0.0035972660777808863
277.7146    0.003837083816299612
278.0783    0.009013150005995443
323.9879    0.010671889364083297
329.0049    0.02717934369878892
370.0081    0.014788760541988088
372.0228    0.0031176306007434347
389.1238    0.010751828610256205
390.1115    0.003837083816299612
407.1349    0.288141012830249


