PRECURSORMZ: 273.07574948399997
COMPOUNDNAME: challenge-001
FORMULA: C15H12O5
SMILES: c1cc(ccc1C1COc2cc(cc(c2C1=O)O)O)O	
INCHIKEY: UQGVUYNHDKMLSE-UHFFFAOYSA-N
PRECURSORTYPE: [M+H]+
IONMODE: positive
CHARGE: 1
PARENTMASS: 272.068473484
NUM PEAKS: 14
77.0381     0.02
95.0487     0.067
107.0484    0.049
123.0431    0.27699999999999997
151.0383    0.17800000000000002
153.0187    0.06
167.0337    0.01
179.0329    0.28600000000000003
199.0751    0.013999999999999999
225.0553    0.013999999999999999
227.0709    0.14
245.0811    0.047
255.064     0.32799999999999996
273.077     1.0


