PRECURSORMZ: 785.250967872
COMPOUNDNAME: challenge-131
FORMULA: C35H46O20
SMILES: O[C@H]1[C@@H](O[C@@H]([C@@H](O)[C@@H]1O)CO)O[C@H]1[C@H](O[C@@H]2[C@@H](O)[C@H](OCCc3ccc(c(c3)O)O)O[C@@H]([C@H]2OC(=O)/C=C/c2ccc(c(c2)O)O)CO)O[C@H]([C@H](O)[C@H]1O)C
INCHIKEY: SDRRSTAVRUERNC-QPJJXVBHSA-N
PRECURSORTYPE: [M-H]-
IONMODE: negative
CHARGE: -1
PARENTMASS: 786.2582438720001
NUM PEAKS: 30
133.0257    0.005890847191806367
135.0428    0.012446327305415564
161.0241    0.023381690558387284
162.0199    0.003452265967925485
179.033     0.02164121297898995
392.1205    0.0020608402107699223
392.6194    0.0009180541078139793
461.1658    0.017658196979984508
462.171     0.003978234467193911
605.2074    0.0027493807916304067
619.1781    0.0032370970364065835
621.1833    0.023156958563245324
622.1922    0.00820510858858744
623.214     0.14252311870630874
624.2207    0.04867599384138703
625.0289    0.002534211860111505
625.2211    0.014057703525901558
625.5431    0.002113437060696765
625.916     0.002362076714896384
626.2276    0.004026049785309222
631.1851    0.00439422773479712
649.1937    0.006359437309336419
653.2061    0.02138301026116727
654.2105    0.00828639462938347
655.2167    0.003748720940240416
656.2179    0.0012910135891134084
676.1237    0.0031032141456837116
677.1222    0.0035478966041561076
781.2182    0.00811904101597988
785.2502    1.0


