PRECURSORMZ: 787.2655198720003
COMPOUNDNAME: challenge-133
FORMULA: C35H46O20
SMILES: C1(C(C(C(C(O1)OC1C(C(C(OC1OC1C(C(OC(C1O)OCCc1ccc(c(c1)O)O)COC(=O)/C=C/c1cc(c(cc1)O)O)O)C)O)O)O)O)O)CO
INCHIKEY: PSFMBXYUQFAGAM-QPJJXVBHSA-N
PRECURSORTYPE: [M+H]+
IONMODE: positive
CHARGE: 1
PARENTMASS: 786.2582438720002
NUM PEAKS: 32
89.0279     0.026209414526013823
117.0295    0.06191159212413613
135.0434    0.08553918372669188
145.0248    0.12437084365627851
163.0386    1.0
164.0119    0.12048506976137698
164.0376    0.12082409701395228
181.0504    0.06008606076411527
263.0887    0.021619507106532796
299.1107    0.014786804016168992
307.0816    0.11206154648585213
308.0781    0.019637501629938714
309.1051    0.032051114878080586
325.0921    0.24209153735819533
326.0942    0.04728126222454036
413.0987    0.00993610640239927
435.1307    0.00904941974181771
461.1427    0.02133263789281523
462.151     0.010196896596687965
471.1498    0.037866736210718475
472.1574    0.008293128178380493
479.1554    0.09797887599426261
480.1575    0.027252575303168602
481.1708    0.008267049158951623
532.0674    0.054061807276046425
533.072     0.031138349198070153
571.1945    0.011135741296127266
625.211     0.03572825661755118
626.2134    0.00944060503325075
678.136     0.016012517929325856
679.143     0.015673490676750553
787.2725    0.021019689659668796


