PRECURSORMZ: 365.174735248
COMPOUNDNAME: challenge-214
FORMULA: C23H24O4
SMILES: c1(c(cc2c(c1O)C1C3C(O2)(C)CCC3C1(C)C)O)C(=O)c1ccccc1
INCHIKEY: BQIVXBUAUNSLAJ-UHFFFAOYSA-N
PRECURSORTYPE: [M+H]+
IONMODE: positive
CHARGE: 1
PARENTMASS: 364.167459248
NUM PEAKS: 89
55.0208     0.0009551628419242849
69.03       0.0016307137681120755
77.0254     0.0030767982941538696
79.0441     0.0013126818944881233
81.0675     0.01873399835434514
82.0706     0.0014033956839446197
97.0708     0.0008313651998424782
105.0316    0.03206572374129281
106.0258    0.0033798890730438102
118.0862    0.005083173872721083
153.0067    0.0008484407366813481
165.0128    0.09170417059315078
165.8436    0.0007513236209102756
166.0238    0.012883492544927337
179.0356    0.03167405361505123
180.0361    0.00488467075696922
181.008     0.00084523907352406
207.0668    0.3041270505318496
207.3199    0.0027352875573764717
207.5586    0.002301995810090148
207.8541    0.0034898128414440352
208.0719    0.049402729738007904
208.3534    0.0034055023783021157
208.6742    0.002499431704789581
208.8226    0.0013468329681658633
209.0729    0.00897639627198342
209.3185    0.0010031877892836066
209.767     0.0006371309683003331
210.0775    0.0011259182103129839
243.0701    0.03132080344669711
244.0715    0.006589022777698922
257.0834    0.04423204373898761
258.0883    0.009260277071929631
259.097     0.002087484378551845
281.0905    0.012887761429137055
282.0835    0.002983950062592515
282.1308    0.00402449058871115
284.5843    0.000993582799811742
284.6608    0.0010672210524293687
284.864     0.0015250588839215678
284.9774    0.0018260152207066496
285.1135    1.0
285.3047    0.0027875813889455107
285.6318    0.007903839114291903
285.6734    0.007902771893239475
285.8723    0.006052210588326949
285.9728    0.006070353346218248
286.1183    0.250345512815724
286.4203    0.009580443387658443
286.4596    0.009547359535033132
286.7028    0.009038295093024323
286.7684    0.009018017893028165
286.8989    0.006058613914641526
287.1206    0.042733665381376774
287.3722    0.005542078925265711
287.5523    0.005125862714818258
287.7353    0.0040319611360781545
287.7602    0.0040319611360781545
288.1025    0.007778974251157668
288.1305    0.007777907030105238
288.2952    0.0033510741046282174
288.4368    0.0006147193261993164
288.6005    0.0008142896630036082
288.7635    0.0009242134314038331
289.0322    0.0010704227155866567
289.0796    0.0010405405261186343
289.3262    0.0005346777472671136
289.3553    0.0005336105262146844
289.535     0.0005208038735855318
289.6764    0.0005133333262185263
290.3652    0.000332972968357963
295.0118    0.0006702148209256435
303.0684    0.001632848210216934
308.1068    0.0016894109259956906
311.008     0.000645668736719768
319.0924    0.0006371309683003331
319.4107    0.00031696465257152246
321.0023    0.000787609136692874
323.0457    0.0030458488836334176
324.2957    0.0009765072629728723
331.2232    0.0017790574943997574
337.0037    0.000747054736700558
338.0119    0.0007609286103821398
339.0356    0.002386306273232068
341.036     0.006425737956677229
342.0269    0.0017139570102015658
343.0241    0.0034375190098749966
345.0306    0.0007748024840637215
365.1757    0.7667161501494644


