PRECURSORMZ: 539.2134005919997
COMPOUNDNAME: challenge-089
FORMULA: C26H36O12
SMILES: c1(c(ccc(c1)C(C(CO)Oc1c(cc(cc1)CCCOC1OC(C(C(C1O)O)O)CO)OC)O)O)OC
INCHIKEY: NFUHNVZGHNEYRG-UHFFFAOYSA-N
PRECURSORTYPE: [M-H]-
IONMODE: negative
CHARGE: -1
PARENTMASS: 540.2206765919998
NUM PEAKS: 19
150.0327    0.12567163453356348
151.0312    0.01658116748924169
165.0553    0.18572366341688748
166.0602    0.03391602440981255
181.0804    0.02034961464588753
195.0668    0.091317984002334
196.0637    0.012934283144100556
329.1358    0.10682939875033429
343.1393    0.13809535386934427
344.1432    0.025722690914395465
433.1164    0.01410128613454572
433.2049    0.0040358853419561885
434.2007    0.003476696409034548
491.1905    1.0
492.1885    0.29795045099803064
492.5708    0.011499841968345042
493.1996    0.07135737035326152
493.5163    0.011062215846928106
539.2145    0.6307894288979115


