PRECURSORMZ: 283.15399980399997
COMPOUNDNAME: challenge-182
FORMULA: C15H22O5
SMILES: C12=C(C(=O)OC1)CC(C1C(C2O)CC(C1)(C)CO)(C)O
INCHIKEY: DBKIEMOKQWYZOA-UHFFFAOYSA-N
PRECURSORTYPE: [M+H]+
IONMODE: positive
CHARGE: 1
PARENTMASS: 282.146723804
NUM PEAKS: 53
81.0619     0.011503252228378703
91.0538     0.0194932947884044
105.0664    0.0389865895768088
129.0656    0.18077973179153617
131.0826    0.05954388500762869
143.0587    0.34146390428009316
143.0851    0.3422468481490404
145.1001    0.045491046334216655
155.0836    0.1110776519714125
156.0922    0.11860595840359753
157.0741    0.2052918975347306
157.0996    0.20525174656709227
158.1018    0.03734039990363768
159.1155    0.03499156829679596
161.0614    0.04904440697020799
168.0916    0.06887898498353812
170.1095    0.1035493455392275
171.1154    0.07530313980566933
173.06      0.21137476913193612
174.0608    0.024833373484300973
175.0778    0.030374207018389148
183.1164    0.14512567252870795
184.1198    0.02411065606681121
185.1306    0.6034489681201317
186.1337    0.10511523327712198
187.0758    0.3438729623383924
188.039     0.0464747450413555
188.0782    0.04621376375170642
199.1085    0.040251345057415885
201.1226    0.0803420862442785
202.1216    0.015036537380550873
203.1114    0.026178430900184697
211.1109    0.1303701919216253
212.1123    0.020918654139564764
217.1217    0.10276640167028026
219.1366    0.04512968762547178
220.1128    0.008371476752589738
229.1229    0.6597004737814182
229.7966    0.005199550309162451
230.1266    0.11979041194892798
230.4224    0.006484381273588693
231.1247    0.016763028988998636
247.1329    1.0
247.7653    0.005420380631173212
248.1381    0.17911346663454591
248.36      0.007287400626355095
248.5627    0.004456757407853529
249.1283    0.031659037982815386
249.4227    0.0021882277362884448
249.7605    0.0036135870874488074
265.1442    0.2738898257448005
266.1487    0.050590219224283306
283.1568    0.08060306753392757


