PRECURSORMZ: 335.22168543999993
COMPOUNDNAME: challenge-153
FORMULA: C20H30O4
SMILES: C1CC(C2C(C1)(C(=O)C1(CC2)C(CC(C1)(C)C=C)O)C)(C)C(=O)O
INCHIKEY: JSXYBZIRJXMIMK-UHFFFAOYSA-N
PRECURSORTYPE: [M+H]+
IONMODE: positive
CHARGE: 1
PARENTMASS: 334.21440943999994
NUM PEAKS: 149
55.0426     0.0071063974122455055
67.0509     0.01626446718565153
79.0504     0.03703764984240178
81.0662     0.045988897805206944
82.0833     0.00483135749563606
91.0527     0.05105189572871597
92.0348     0.006494204852866964
93.0664     0.09259826104221645
95.0842     0.07778981940319497
96.0601     0.007122943157093574
97.0649     0.011466201179711607
105.0696    0.11460410169014783
107.0848    0.16635091870248267
108.0881    0.0182085922052996
109.0986    0.08341537265153834
110.076     0.007809591568288425
110.1044    0.00711467028466954
121.1014    0.1412592966403865
123.0817    0.08572350405784392
123.1065    0.08556631948178726
124.0789    0.009712352225816326
125.081     0.028185676348685025
133.0989    0.12104039643604654
137.0946    0.03927959826931509
138.5094    0.001588391505414595
139.1068    0.014965626215078137
145.1017    0.22880283263151796
146.103     0.028963326356544257
147.1167    0.32361822348337566
148.0974    0.04540979673552454
148.1195    0.04398686267859064
149.1286    0.12280251826236588
150.1181    0.017538489538952817
151.1097    0.018837330509526212
151.9879    0.014866351745989723
155.0811    0.03453096949791937
157.1013    0.08187661838066795
160.1198    0.018804239019830075
161.1322    0.13687467425564828
162.1319    0.01898624221315883
163.1118    0.05388949097015974
165.1221    0.04917395368846016
167.0949    0.02318886140456828
171.1205    0.10252570795105767
172.106     0.014022518758738221
173.1336    0.12080875600817359
174.1233    0.017191028897143378
175.1316    0.03257029873342323
179.1038    0.02229539118277257
181.1051    0.018903513488918486
182.1026    0.009886082546721046
183.1169    0.06000314369152113
187.1502    0.10285662284801905
188.1588    0.01465125706296483
191.1265    0.022717307676398322
191.1603    0.021765927347634374
192.5866    0.0015966643778386293
193.123     0.1339874417796603
193.5739    0.0018862149126798314
194.1244    0.020657362442813767
194.5639    0.0018862149126798314
195.5717    0.001687665974503007
196.073     0.008214962317066107
196.5782    0.001993762254192278
197.1028    0.11829380279126715
197.1335    0.1181862554497547
197.5801    0.002374314385697858
198.1311    0.02343704757728931
199.1493    0.04644390578852883
201.1623    0.07299982626967909
205.1133    0.021112370426135656
207.1389    0.038535039751151995
207.5929    0.001778667571167385
208.1344    0.00424398355352962
211.0192    0.009737170843088429
211.144     0.09553513075274865
212.1521    0.018920059233766554
213.1644    0.07568023693506622
215.155     0.02399960290212365
215.5859    0.0014973899087502172
216.5856    0.001993762254192278
217.5897    0.0012905680981493584
219.1365    0.04332503288466789
225.1664    0.05326075266593313
227.1826    0.14729022063750755
228.1816    0.031031544462552844
229.1966    0.12685622575014271
230.1853    0.0214846496852172
237.5906    0.0007941957527072975
238.1679    0.014014245886314187
239.158     0.029616883278042967
243.1331    0.020202354459491877
243.2117    0.5291163744963888
244.2152    0.12281906400721393
253.1962    0.6122587423579341
254.201     0.13646930350687062
254.4572    0.004384622384738204
255.211     0.14733985787205175
256.2122    0.03298394235462495
257.1801    0.044003408423438695
258.1696    0.011606840010920192
262.0687    0.011135286282750232
271.2054    0.737270117557517
271.9199    0.006039196869545074
272.2134    0.18000115820213936
272.646     0.006080561231665246
273.548     0.0030278713071965717
275.1805    0.052052913292024126
276.1634    0.010647186809732206
276.2018    0.009679260736120188
289.2146    0.47717928141830124
289.7908    0.0033836048214300482
289.972     0.0039213415289922815
290.2206    0.10560321649279845
290.4662    0.0035821537596068724
290.6492    0.0024074058753939956
290.9673    0.0035738808871828387
299.2       0.657048073661656
299.7737    0.0032677846074935677
300.0702    0.005617280375919323
300.2057    0.16980897937572903
300.3372    0.005311184096230052
300.4597    0.004425986746858376
300.6747    0.0038965229117201784
300.9654    0.00483135749563606
301.538     0.0046245356850352
301.5602    0.0046245356850352
316.768     0.003185055883253224
317.0597    0.005923376655608593
317.2106    1.0
317.3363    0.002390860130545927
317.6729    0.0031436915211330526
317.9156    0.006270837297418036
318.0436    0.006949212836188852
318.2167    0.28893006940939964
318.4106    0.007412493691934776
318.4337    0.0067341181531639606
318.6486    0.0066265708116515125
318.9514    0.007197399008909883
319.2165    0.05540342662375804
319.4175    0.004525261215946789
319.7496    0.004252256425953655
320.0322    0.007048487305277265
320.2067    0.011019466068813752
320.5357    0.0029782340726523656
320.7384    0.0030775085417407777
321.5492    0.0022915856614575143
321.7306    0.002639046303266957
335.222     0.7231731429469626


