PRECURSORMZ: 255.137955816
COMPOUNDNAME: challenge-236
FORMULA: C17H18O2
SMILES: c1cccc(c1)C(=O)CC(CCc1ccccc1)O
INCHIKEY: QJUWGGININGVSC-UHFFFAOYSA-N
PRECURSORTYPE: [M+H]+
IONMODE: positive
CHARGE: 1
PARENTMASS: 254.130679816
NUM PEAKS: 64
77.0324     0.054741129347664834
91.051      0.0764002211762802
92.0438     0.009453937342378184
105.0321    0.3391549447733618
105.5537    0.003047917031922211
115.0553    0.1799484821103454
116.0607    0.0255296767319856
117.0687    1.0
117.7589    0.006352074876262661
118.0745    0.1269875520910599
120.0494    0.01800428866201837
121.066     0.03962292141498874
133.0676    0.019771001631849385
156.0251    0.007404010843032273
157.045     0.05430956587411833
157.0677    0.05561774265330618
164.0031    0.02600169928117709
175.5416    0.001132854118059583
176.542     0.000809181512899702
177.5388    0.000809181512899702
187.9888    0.01387746294622989
189.0055    0.16368393370106138
189.9969    0.0504929264049414
191.0091    0.06232046285182539
192.0142    0.08370982750947417
193.0097    0.03483526413033217
193.0985    0.03374286908791757
194.0012    0.035199395811137034
194.0171    0.03808547654047931
197.0217    0.015590230481867591
204.0613    0.012191668127688845
205.0093    0.012690663393976993
207.0182    0.03708748600790301
214.0882    0.01188148188107729
214.5522    0.004531416472238332
219.1198    0.03111302917099354
220.0852    0.006743179274164183
221.5839    0.0025758944827307183
222.0638    0.01618363025799404
222.077     0.01569812135025422
222.5666    0.0035469122982103606
223.0783    0.015495825972029293
224.9849    0.019878892500236015
233.0326    0.027889789477943062
235.0144    0.034457646090978976
235.9894    0.00873916033931678
236.777     0.0019285492724109565
237.1265    0.37709207136980943
237.3383    0.0019285492724109565
237.6877    0.001766712969831016
237.9735    0.015158667008321084
238.1324    0.09521369135119827
238.3831    0.0025758944827307183
238.5947    0.003061403390470539
238.9193    0.006446479386100959
239.1335    0.017006298129442068
239.2997    0.002211762801925852
239.6844    0.0025758944827307183
239.8752    0.0020903855749908966
240.1456    0.004531416472238332
240.5273    0.0025758944827307183
243.9859    0.014133703758648128
244.9815    0.003492966864017047
255.1396    0.04709436405076266


