PRECURSORMZ: 720.2498102320002
COMPOUNDNAME: challenge-139
FORMULA: C34H41NO16
SMILES: [C@@H]1([C@H]2[C@]([C@]34[C@@]([C@H]1OC(=O)C)([C@@H](C(=O)[C@H]([C@H]3O)[C@](O4)(C)COC(=O)c1c(nccc1)[C@H]([C@@H](C(=O)O2)C)C)OC(=O)C)COC(=O)C)(C)O)OC(=O)C
INCHIKEY: GARAEILXWIXANX-UHFFFAOYSA-N
PRECURSORTYPE: [M+H]+
IONMODE: positive
CHARGE: 1
PARENTMASS: 719.2425342320001
NUM PEAKS: 68
152.0635    0.00039961310186047144
178.4185    0.00013093383829898022
179.5154    0.00013068155730033092
203.3742    0.00011403101138947796
205.7734    0.0004076860938172486
206.0841    0.3615391058253196
206.7023    0.0026035399060606473
207.0868    0.05110733698737131
208.889     0.0014412813452833796
369.1426    0.00011882435036381443
388.5938    6.07997206744783e-05
389.5685    6.0547439675829e-06
540.1805    0.00019955426993158642
600.2094    0.0017780764784801784
642.2155    0.004009249630534477
644.2326    0.0004730268724674141
660.2261    0.004609678407319782
661.2298    0.0016173734823405823
662.2383    0.0005108690222648072
684.2291    0.0012982380190492337
685.2358    0.0005196988572175323
690.2386    0.000464197037514689
691.2403    0.00021923218782623086
692.2423    0.00016423493012068617
701.7385    0.0001980405839396907
702.2391    0.0799708060428363
702.7406    0.0005804985778920105
703.0349    0.0003014757933858986
703.2383    0.03165874252049909
703.5646    0.00035899586107793614
703.7777    0.0005787326109014656
703.8043    0.0006145565127096644
704.0313    0.0006402891745718917
704.247     0.009327080801062808
704.493     0.0011052430550825287
704.5167    0.0011302188739488082
704.6993    0.0006761130763800905
704.7853    0.0006763653573787399
704.9154    0.00099499625867279
705.0657    0.0003617709520630783
705.2436    0.0026184244849809554
705.3432    0.002116637578667522
705.4204    0.0009447923399415818
705.6812    0.0004783247734390491
705.7873    0.00040919977980914435
705.9149    0.0002139342868545958
706.1495    0.0005522431060432904
706.2559    0.0006698060514138583
706.4147    0.0003471386541414196
706.4714    0.0003489046211319647
706.6498    0.0002971870164088607
706.6781    0.0003072782563548322
706.9484    0.000315855810308908
707.0789    0.00028911402445208346
707.3091    0.00029794385940480855
707.3388    0.00029592561141561426
707.5703    0.00022175499781272375
707.6044    0.00019349952596400352
707.7817    0.0001884539059910178
707.9633    0.0001432956072327953
708.0364    0.00020333848491132573
708.3161    0.00016272124412879046
708.3373    0.00016272124412879046
708.632     0.0001859310960045249
708.6846    0.0001735693270707098
708.8394    0.00014581841721928818
709.9464    0.00010343520944620788
720.248     1.0


