PRECURSORMZ: 325.14343511999994
COMPOUNDNAME: challenge-192
FORMULA: C20H20O4
SMILES: c1c(ccc(c1O)C(=O)/C=C/c1ccc(cc1)OCC=C(C)C)O
INCHIKEY: VVSZRCIUFBADJQ-BJMVGYQFSA-N
PRECURSORTYPE: [M+H]+
IONMODE: positive
CHARGE: 1
PARENTMASS: 324.13615911999995
NUM PEAKS: 57
81.0322     0.008478792110315938
91.2249     0.001160761040321173
107.0402    0.002794990399720719
123.0334    0.00432667132134753
137.0294    0.1844606388549485
137.5429    0.001210944318380171
138.0239    0.017882702042241228
147.0439    0.11619610752312795
148.0494    0.012897102461162506
163.0487    0.016381567463780763
169.062     0.0031877290975737475
176.5185    0.00028364461511607613
183.0773    0.007907139116774306
205.9801    0.0009774829813230929
211.0758    0.0449314889160412
215.0745    0.004865596090068074
239.071     0.05199860359574096
239.0893    0.05317681968930005
240.0759    0.01105559434456275
241.1006    0.00366337929830686
242.0585    0.028041543026706233
255.092     0.005315063710944318
256.0836    0.003292459417001222
256.6505    0.001525135276662594
256.7688    0.0014880432885320302
256.931     0.002218973642869611
257.081     1.0
257.3519    0.007590766276837144
257.397     0.007571129341944493
257.6676    0.009471548263222202
257.8387    0.009687554547041368
257.9646    0.013058561703613195
258.085     0.19264269506021994
258.3818    0.007678041543026706
258.582     0.009471548263222202
258.674     0.007252574620352592
258.853     0.006973293768545994
258.9206    0.006652557165299354
259.0926    0.03361843253621923
259.3537    0.0022124279979053936
259.4596    0.002225519287833828
259.6458    0.001402949903997207
259.8059    0.0022167917612148716
260.0922    0.00343428172455926
260.1185    0.004344126374585443
260.3584    0.0013658579158666434
260.3724    0.0013854948507592947
260.7336    0.0013658579158666434
287.0005    0.0028299005061965437
293.9874    0.0014967708151509861
310.0004    0.0021535171932274394
311.0168    0.005280153604468494
313.003     0.005195060219933671
314.0137    0.0020618781637283994
314.9979    0.002498254494676209
316.9814    0.0025789841159015534
325.1427    0.3967751789142957


