PRECURSORMZ: 795.250573948
COMPOUNDNAME: challenge-081
FORMULA: C40H44O17
SMILES: C1(C(C(OC1c1ccc(cc1)O)c1ccc(cc1)O)c1cc(c(c(c1)O)C1OC(C(C(C1O)O)O)CO)O)c1cc(c(c(c1)O)C1OC(C(C(C1O)O)O)CO)O
INCHIKEY: ISHUKYBHEZATMQ-UHFFFAOYSA-N
PRECURSORTYPE: [M-H]-
IONMODE: negative
CHARGE: -1
PARENTMASS: 796.2578499480001
NUM PEAKS: 15
277.0776    0.0017763327878735683
277.579     0.0011411592455430196
339.0829    0.010378089742485575
405.1345    0.008429506502454569
555.1672    1.0
555.9854    0.004618465248471278
556.1718    0.4237576436138145
556.8619    0.010335027129446216
557.1447    0.10596632503660322
557.4391    0.010884075445698044
559.5291    0.005242873137541987
675.2058    0.3481935233829989
676.2092    0.15960080957712516
689.1785    0.007159159417793473
795.2491    0.5660365170958574


