PRECURSORMZ: 481.27959423999994
COMPOUNDNAME: challenge-242
FORMULA: C26H40O8
SMILES: O([C@@H]1O[C@@H]([C@@H](O)[C@H](O)[C@H]1O)CO)C[C@@]1(CCC[C@@]2([C@@H]1CCC(=C)[C@H]2CCC1=CCOC1=O)C)C
INCHIKEY: YGCYRQKJYWQXHG-UHFFFAOYSA-N
PRECURSORTYPE: [M+H]+
IONMODE: positive
CHARGE: 1
PARENTMASS: 480.27231823999995
NUM PEAKS: 107
67.0506     0.014928155919057325
69.0683     0.008054492119524685
79.0493     0.02149107542385522
81.066      0.04626361060010938
95.0748     0.08070650822850892
105.0685    0.035064386217869045
107.084     0.06347884452841446
109.0958    0.08153930293839805
110.0808    0.008961865460150152
121.0964    0.053224282802167754
123.1096    0.09527420076567394
124.1078    0.015176751354845124
133.0983    0.04740714960473325
135.1146    0.08846268582508826
139.075     0.05068860935713221
145.0995    0.046586784666633525
149.1265    0.08835081787898375
153.0901    0.08994182866802566
153.1271    0.08995425843981505
154.1119    0.013038830607070055
157.1033    0.010229702182667926
161.0922    0.018110177497141153
163.1356    0.02103117386764779
167.1028    0.0457539899567444
173.1081    0.023106945756475913
179.104     0.07291304131656143
180.1055    0.01159697707950082
181.1089    0.019962213493760254
191.1059    0.11526127380301297
191.1812    0.01425694824243027
192.0955    0.01622085218515388
192.1163    0.017053646895043007
193.1158    0.050899915477551835
201.1281    0.027792969721075922
203.1335    0.011360811415502412
205.1201    0.2558419927410133
206.1213    0.03641923134291254
207.1383    0.059389449609705165
208.1155    0.008638691393626012
209.1559    0.006712076766270571
219.1392    0.20295331377715906
220.1441    0.03139760353999901
221.1586    0.020533982996072193
231.1385    0.05690349525182718
232.1301    0.01157211753592204
233.1548    0.0775244866504251
234.1575    0.01420722915527271
243.1769    0.016929349177149108
245.1535    0.078891761547258
246.1582    0.014679560483269526
259.1706    0.02375329388952419
260.1173    0.006252175210063143
261.1858    0.08055735096703626
262.1863    0.015773380400735844
268.0955    0.0023865161835628698
269.1001    0.0022373589220901903
270.0935    0.0013424153532541143
271.2048    0.07154576641972854
272.213     0.015910107890419134
275.1858    0.012218465668970318
283.2064    0.02718391090339581
289.2165    0.6497414607467807
290.2216    0.15114602495898175
290.4263    0.006028439317854124
290.5878    0.004561726246706111
290.8432    0.006339183612588873
291.2192    0.02601551235519316
301.2155    0.9761721274797395
301.7833    0.006239745438273754
301.9552    0.005556107989857307
302.2208    0.2444438920101427
302.408     0.007035250832794711
302.517     0.006152737035748024
302.6638    0.005295082782280118
302.8413    0.006687217222691791
303.2209    0.04294486153234227
303.4735    0.005966290458907174
303.6071    0.00471088350817879
304.1839    0.008564112762889674
304.206     0.008464674588574554
318.7829    0.004188833093024412
319.227     1.0
319.5379    0.003480336101029185
319.8955    0.004884900313230249
320.0428    0.005916571371749615
320.2325    0.24127430020384824
320.4575    0.005580967533436086
320.5622    0.005568537761646696
320.7       0.00929746929846368
320.727     0.00942176701635758
320.9401    0.0046238751056530605
321.2311    0.03639437179933377
321.3601    0.0050713468900710984
321.7654    0.00479789191070452
322.2404    0.008191219609207975
322.427     0.0013424153532541143
322.7117    0.002983145229453587
323.4188    0.0015661512454631333
342.128     0.03334907771093323
372.1375    0.022087704469745936
373.1446    0.03058966837368866
374.1553    0.030850693581265846
391.1588    0.008427385273206384
432.159     0.0729503306319296
445.1712    0.01827176453040322
446.1789    0.012516780191915678
481.2794    0.059128424402127976


