PRECURSORMZ: 975.3993038400001
COMPOUNDNAME: challenge-126
FORMULA: C48H60N6O16
SMILES: N1C(=O)C2N(C(=O)C(N(C(=O)C(NC(=O)C(N(C(=O)C(NC(=O)C1C)CCC(=O)O)C)Cc1ccc(cc1)OC)C)C)Cc1ccc(cc1)Oc1cc(ccc1OC1OC(C(C(C1O)O)O)CO)C2)C
INCHIKEY: KGNAXTMQQANFON-UHFFFAOYSA-N
PRECURSORTYPE: [M-H]-
IONMODE: negative
CHARGE: -1
PARENTMASS: 976.4065798400002
NUM PEAKS: 20
631.2697    0.0015608616651072522
684.2962    0.0022729098238766245
699.3148    0.0011093189302778942
744.3169    0.0008878893199288819
751.3423    0.0034538677457380223
752.3499    0.0015912539645669204
795.3333    0.0145687658338453
796.3358    0.00774786548368259
797.3392    0.002055821970593279
813.3426    0.06407130901804652
814.3486    0.03170351009349974
815.3481    0.010687235017139085
816.3507    0.0027526739796328173
835.3263    0.006575591075952526
836.3314    0.0028720722989386575
837.3271    0.001141882108270396
855.3503    0.0013567990830209078
867.2615    0.0016390132922892565
965.4221    0.001267793063174736
975.3984    1.0


