PRECURSORMZ: 367.1187123599999
COMPOUNDNAME: challenge-026
FORMULA: C21H20O6
SMILES: CC(=CCc1c(cc(c2c(=O)c(c(c3ccc(cc3)OC)oc12)O)O)O)C	
INCHIKEY: TUUXBSASAQJECY-UHFFFAOYSA-N
PRECURSORTYPE: [M-H]-
IONMODE: negative
CHARGE: -1
PARENTMASS: 368.1259883599999
NUM PEAKS: 15
175.0021    0.08900000000000001
177.0754    0.019
188.0099    0.019
191.0685    0.019
225.0168    0.027000000000000003
253.052     0.128
265.048     0.139
269.0434    0.07
281.0436    0.324
283.0987    0.023
297.0379    0.9179999999999999
309.0421    0.9329999999999999
312.0654    0.085
352.0922    0.805
367.1196    1.0


