PRECURSORMZ: 543.128572904
COMPOUNDNAME: challenge-199
FORMULA: C30H22O10
SMILES: Oc1ccc(cc1)C1Oc2cc(O)cc(c2C(=O)C1C1C(Oc2cc(cc(c2C1=O)O)O)c1ccc(O)cc1)O
INCHIKEY: RNQBLQALVMHBKH-UHFFFAOYSA-N
PRECURSORTYPE: [M+H]+
IONMODE: positive
CHARGE: 1
PARENTMASS: 542.1212969039999
NUM PEAKS: 19
153.0201    1.0
153.8746    0.007581365362114664
154.0211    0.14626662527758544
231.0793    0.18398242555934957
232.0707    0.04043792831729506
298.5228    0.0017072996012321214
299.03      0.002817641299935529
300.0265    0.0026743714033286375
312.057     0.013634518493755823
320.5317    0.0007044103249838823
365.9974    0.0026863105613792117
389.1018    0.02812865636715299
391.1193    0.06750399961794694
392.0737    0.04523746985362592
417.0986    0.15779985195444018
418.1012    0.045010625850665016
419.109     0.013419613648845485
491.0169    0.006494901979512405
543.1297    0.500310418109315


