PRECURSORMZ: 491.2639441759998
COMPOUNDNAME: challenge-219
FORMULA: C27H38O8
SMILES: C12(C(C=C(C1=O)C)C1(C(C=C(C2)CO)C2C(C(C1C)OC(=O)C)(C2(C)C)OC(=O)C(CC)C)O)O
INCHIKEY: LJNNQVFOVQWDMN-UHFFFAOYSA-N
PRECURSORTYPE: [M+H]+
IONMODE: positive
CHARGE: 1
PARENTMASS: 490.25666817599983
NUM PEAKS: 195
57.0646     0.0032640433143188634
69.0302     0.0029391859228463696
85.0519     0.0018543942763221504
105.0672    0.005002417093686551
117.0519    0.002498308034419414
128.0547    0.002301073189596829
129.067     0.003907957072416127
130.0784    0.001241419317412743
135.0806    0.004507396306680847
137.0624    0.005934448419220729
145.101     0.007759837571304264
147.082     0.0037223242772889877
149.0955    0.004447452383254375
155.9769    0.002560185632795127
156.0822    0.002562119307744368
157.0959    0.005893841245286667
157.9784    0.0010770569467272552
161.068     0.005422024557671855
166.0775    0.003790002900512424
167.0857    0.005750749299042831
169.1001    0.009186889683844146
170.1065    0.007067581939475974
171.1034    0.006615102001353573
173.0951    0.005422024557671855
175.0855    0.0035173547326694385
180.0934    0.0052518611621386446
183.1171    0.010818911341003577
185.0958    0.009993232137677655
186.1022    0.00614135163878952
187.1104    0.010706758193947598
189.0841    0.0029739920719327084
195.1174    0.03473460311321667
196.1188    0.007230010635212221
197.0993    0.009335782654935705
199.1062    0.01496084308227787
201.1119    0.003312385188049889
206.105     0.005118437590641013
207.1166    0.01626027264816784
209.0981    0.024447452383254374
210.105     0.010084114860291985
211.1133    0.026754326597698923
212.114     0.004472590157594509
213.1263    0.009995165812626897
218.1036    0.003459344484192207
221.1007    0.01329594895098134
223.1137    0.05326501015179348
223.1544    0.009473073576331818
224.1207    0.013069708981920138
225.1256    0.017795610557865223
232.1234    0.00893164459054433
233.1124    0.009649037996712753
235.1153    0.02983273711689065
235.1518    0.029823068742144444
236.1218    0.014686261239485642
237.1299    0.02412452866673112
238.1168    0.006918688968384414
239.1138    0.011025814560572368
241.1184    0.012069999033162526
247.1476    0.022463501885333078
248.1413    0.007405975055593155
249.1274    0.026483612104805182
250.1361    0.021900802475103932
251.138     0.036764961809919755
252.1417    0.010671952044861259
253.1075    0.015709175287634148
253.1318    0.015987624480324855
260.1228    0.0163666247703761
263.144     0.027750169196558056
264.1387    0.007094653388765348
265.1565    0.09906023397466886
266.1606    0.022519578458861062
267.1454    0.028134970511457025
268.1479    0.005940249444068452
269.1614    0.005509039930387701
275.1466    0.04301266557091753
276.1495    0.008384414579909117
277.1198    0.004870927197138161
278.1263    0.017747268684134197
280.1434    0.007933868316735957
281.1551    0.030664217345064294
282.1683    0.006798801121531471
283.1686    0.04032679106642174
284.1725    0.008906506816204196
293.1529    0.20457700860485353
293.9305    0.0016455573818041187
294.1584    0.051553707821715165
294.3096    0.0013883786135550614
294.5615    0.001183409068935512
294.7596    0.001357439814367205
294.7898    0.001357439814367205
294.987     0.0014966644107125594
295.5566    0.0008817557768539109
295.7341    0.0011718070192400657
296.1552    0.005714009475007251
310.563     0.0008972251764478391
310.6569    0.0012530213671081891
310.7778    0.001369041864062651
310.971     0.0017055013052305907
311.032     0.002148312868606787
311.165     1.0
311.326     0.005685004350768636
311.438     0.005775887073382964
311.6585    0.002192787392439331
311.8487    0.008912307841051919
311.9984    0.006280576235134874
312.1684    0.2517934835154211
312.307     0.011733539591994585
312.6295    0.01084211544039447
312.7248    0.006100744464855458
312.9219    0.006245770086048535
313.1719    0.04046214831286861
313.2838    0.004805182248863966
313.4717    0.007239679009958425
313.5049    0.006543556028231654
313.7692    0.0037242579522382287
313.8147    0.003786135550613942
313.95      0.004708498501401914
314.1584    0.009840471816687615
314.1924    0.009639369621966548
314.3966    0.0019317412742917916
314.4673    0.0018911341003577298
314.6537    0.0010364497727931934
314.8444    0.001483128686067872
314.9477    0.0012008121434786813
315.3312    0.0011350671952044863
315.6611    0.0006381127332495408
329.1764    0.08413613071642657
330.1811    0.017878758580682587
331.188     0.004114860291984918
335.1677    0.011099294208643527
336.149     0.0030513390699023497
336.1746    0.0025079764091656192
347.1851    0.005340810209803732
351.1754    0.007030842115440395
352.1573    0.002376486512617229
353.1767    0.023194431016146187
354.1861    0.0040703857681523735
364.0903    0.0025466499081504396
365.1682    0.00468142705211254
367.2123    0.0037068548776950593
371.1846    0.012416126849076671
372.1855    0.002852170550130523
377.2067    0.007852653968867834
378.1926    0.00286570627477521
382.0908    0.004008508169776661
389.1957    0.011466692448999323
390.1983    0.002979793096780431
395.2208    0.06120274581842792
396.2211    0.017869090205936383
397.2269    0.0054046214831286864
413.231     0.10496567726965098
414.2356    0.02992748718940346
424.1056    0.0013187663153823843
431.2426    0.45716329884946344
431.4113    0.0013187663153823843
431.5804    0.002469302910180799
431.8321    0.0004988881369041864
432.0091    0.0026433336556124913
432.2472    0.12984240549163686
432.4613    0.0017983177027941603
432.6164    0.005539978729575558
432.7753    0.005358213284346902
432.8374    0.005387218408585517
433.0462    0.0011988784685294403
433.2476    0.021247220342260464
433.4155    0.002736150053176061
433.4537    0.0027438847529730253
433.654     0.0020864352702310743
433.7113    0.0015952818331238519
433.9336    0.0017016339553321087
433.9968    0.0017074349801798317
434.2425    0.005460698056656676
434.2595    0.00545102968191047
434.4009    0.0010287150729962294
434.4718    0.0010248477230977472
434.6752    0.0014444551870830514
434.7071    0.0013825775887073384
434.8541    0.0009320313255341778
434.9362    0.0013941796384027844
435.2625    0.0020554964710432174
435.522     0.000771536304747172
442.1195    0.0018756647007638016
453.2255    0.020665184182538918
454.2287    0.0060640046408198785
455.2229    0.0021057720197234847
465.2311    0.009223629507879725
466.226     0.0035579619066035
467.1675    0.006580295852267234
468.1741    0.0016822972058396983
470.2008    0.0016339553321086725
473.2538    0.007106255438460795
474.2577    0.0016842308807889393
485.2012    0.004145799091172774
487.1841    0.0029739920719327084
491.2634    0.011507299622933386


