PRECURSORMZ: 483.16605647599994
COMPOUNDNAME: challenge-122
FORMULA: C26H28O9
SMILES: OC1=C2C(O[C@@H]3[C@@]2(C2[C@@](C1=O)([C@]14[C@@](CC2)([C@@H](OC(=O)[C@H]1O4)c1cocc1)C)C)COC(=O)C3)(C)C
INCHIKEY: SNGHLUWTFLYPMT-UHFFFAOYSA-N
PRECURSORTYPE: [M-H]-
IONMODE: negative
CHARGE: -1
PARENTMASS: 484.1733324759999
NUM PEAKS: 99
67.0069     0.002840566012968943
81.033      0.0047150245464807955
87.0069     0.00725630726418314
136.0478    0.002866818933606364
137.0683    0.00362815363209157
159.0707    0.00362815363209157
161.0605    0.1532645506812633
162.0636    0.02186868289097162
173.0848    0.003927436927358169
199.0846    0.0037331653146412537
200.0902    0.002289254679583104
201.0935    0.003365624425717361
203.0995    0.0023155076002205244
213.0948    0.005245333543356699
225.0911    0.0034023785146097504
229.0832    0.00404294977816282
235.1154    0.002578036806594734
237.1271    0.006783754692709564
241.1082    0.003523141949541886
243.1248    0.0037174135622588013
259.0979    0.05309915728124753
260.0971    0.008742222572261165
261.103     0.002977081200283532
269.1516    0.008332677010317396
277.138     0.003139849308235541
279.1387    0.007881126775353757
281.1454    0.010994723162951879
283.1122    0.004363235409939355
285.1117    0.0030715917145782467
293.1174    0.02760757134231183
299.1317    0.007497834134047413
317.1725    0.0060224199942243576
318.1372    0.002730303746291775
319.1543    0.003239610406657741
321.1293    0.0098921004961802
323.1669    0.006242944527578694
335.1235    0.003964191016250558
344.1434    0.003334120920952456
347.1834    0.02086057073849466
348.1821    0.006190438686303852
349.1597    0.018587067811294006
351.1606    0.008353679346827333
359.1575    0.016045785093591662
360.1525    0.006862513454621826
361.1531    0.006573731327610197
365.182     0.005906907143419705
375.1623    0.02430495392612428
376.1632    0.005639127352918012
377.1402    0.06185188102176367
378.1511    0.018587067811294006
379.1525    0.010028615683494788
385.1482    0.006006668241841906
388.1233    0.004694022209970859
393.1688    0.03204431493003596
394.1768    0.010753196293087606
395.1497    0.2177259720143866
396.1539    0.05771442072930614
396.4426    0.003087343466960699
396.5172    0.0020687301462287678
396.7357    0.0023732640256228506
396.7576    0.0023680134414953663
396.9954    0.002788060171694101
397.1662    0.0335932372476438
397.1981    0.035861489590716965
397.6311    0.0023680134414953663
398.1751    0.008516447454779344
403.1542    0.03648630910188758
421.1651    1.0
421.4416    0.005807146044997506
421.541     0.0032921162479325828
421.6481    0.00404294977816282
421.9302    0.010716442204195216
422.171     0.3054474810322648
422.3752    0.01906487096689507
422.5063    0.012590900737707071
422.7285    0.021511643170302696
422.8285    0.022409493056102493
422.9484    0.017148407760363343
423.164     0.15629938830694914
423.5637    0.006731248851434722
423.7451    0.006647239505394975
423.8456    0.007151295581633456
423.9755    0.006962274553044026
424.1664    0.04517077524874642
424.348     0.005618125016408075
424.5306    0.005030059594129847
424.7505    0.005429103987818645
424.8529    0.004678270457588406
424.9463    0.004872542070305321
425.1546    0.014029560788637735
425.3357    0.0035388937019243394
425.6589    0.0035651466225617603
425.9094    0.002814313092331522
426.1165    0.0037331653146412537
426.354     0.002273502927200651
426.6238    0.002746055498674227
439.1764    0.01619280144916122
440.1816    0.005350345225906382
483.1659    0.42087632249087714


