PRECURSORMZ: 285.076847548
COMPOUNDNAME: challenge-048
FORMULA: C16H14O5
SMILES: c1c(c(c2c(c1)[C@H]1[C@@H](CO2)c2c(O1)cc(cc2)O)O)OC
INCHIKEY: QDFJNOVWEADTGJ-UHFFFAOYSA-N
PRECURSORTYPE: [M-H]-
IONMODE: negative
CHARGE: -1
PARENTMASS: 286.084123548
NUM PEAKS: 6
133.0307    0.09125302663438258
161.0176    0.2840496368038741
253.0499    0.09488498789346247
270.0532    1.0
271.0566    0.19067796610169493
285.0759    0.7692191283292978


