PRECURSORMZ: 166.086254592
COMPOUNDNAME: challenge-024
FORMULA: C9H11NO2
SMILES: C1CNCc2cc(c(cc12)O)O	
INCHIKEY: MBFUSGLXKQWVDW-UHFFFAOYNA-N
PRECURSORTYPE: [M+H]+
IONMODE: positive
CHARGE: 1
PARENTMASS: 165.078978592
NUM PEAKS: 10
77.039      0.038
91.056      0.121
103.053     0.091
119.0494    0.065
121.0641    0.418
123.0414    0.083
131.0477    0.111
137.0618    0.561
149.0608    0.47100000000000003
166.0869    1.0


