PRECURSORMZ: 223.096484928
COMPOUNDNAME: challenge-200
FORMULA: C12H14O4
SMILES: c1(c(c(cc(c1)/C=C/C=O)OC)OC)OC
INCHIKEY: XDSHNNRBLSBDAP-SNAWJCMRSA-N
PRECURSORTYPE: [M+H]+
IONMODE: positive
CHARGE: 1
PARENTMASS: 222.089208928
NUM PEAKS: 44
55.0143     0.02219606263843497
69.0266     0.007853038211923607
77.0314     0.02055420455073496
105.0509    0.03742197301776614
115.0566    0.019067238735459485
123.0347    0.016588962376667026
133.0557    0.08212388283948514
134.039     0.03615185638388501
147.0447    0.1376527625036787
151.076     0.09053453323213705
152.0263    0.06448165301033132
152.0475    0.06448165301033132
153.0511    0.015721565651089665
159.5246    0.0016418580877000045
160.0605    0.12313935657750034
161.0601    0.20510834714456094
162.0661    0.06167810287944734
163.0756    0.4169854865940738
164.0785    0.07535509053453322
165.0553    0.15153111011291645
167.071     0.096792181038088
168.073     0.017425380647759482
176.0408    0.07642384721426247
177.0596    0.44167531481854366
178.0632    0.10422701011446538
179.0721    0.271324793606047
180.0767    0.12882390297548055
181.0842    0.03619832406561236
190.0634    0.22414460742553552
191.0708    1.0
191.8521    0.01110577593283871
191.8816    0.011090286705596256
192.0785    0.8059354718793079
192.519     0.008395161165409457
192.639     0.009618810117563234
193.0845    0.15977137900590138
194.0966    0.12567958984526262
195.103     0.1407351187249268
196.0972    0.022614271773981193
205.0872    0.36356314183485383
206.0915    0.04900791499512089
207.0672    0.09976611266863895
208.0733    0.05645823329874072
223.0965    0.798516132030173


