PRECURSORMZ: 317.21112075599996
COMPOUNDNAME: challenge-190
FORMULA: C20H28O3
SMILES: [C@]12(C([C@@](C(=O)O)(CCC2)C)CCC(=C)[C@H]1CCc1cocc1)C
INCHIKEY: ZQHJXKYYELWEOK-UHFFFAOYSA-N
PRECURSORTYPE: [M+H]+
IONMODE: positive
CHARGE: 1
PARENTMASS: 316.20384475599997
NUM PEAKS: 23
95.0593     0.12702273929138022
177.1673    0.1634056054997356
189.1309    0.15536753040719198
207.0348    0.493918561607615
208.0374    0.12374405076679006
209.0159    0.11126388154415653
215.1862    0.08249603384452671
223.0715    0.22654680063458488
227.1881    0.13315705975674247
243.174     0.11612903225806451
253.1938    0.4484399788471708
254.19      0.11433104177683764
255.225     0.1600211528291909
261.1905    0.08503437334743523
269.1918    0.11179270227392914
281.0603    0.5972501322051825
282.0548    0.19344262295081968
283.0576    0.14056054997355896
297.1108    0.08175568482284505
298.112     0.04907456372289794
299.1953    0.4965626652564781
300.2045    0.09021681649920676
317.2092    1.0


