PRECURSORMZ: 577.15627964
COMPOUNDNAME: challenge-088
FORMULA: C27H30O14
SMILES: c1(c(c(c2c(c1[C@@H]1O[C@H]([C@@H]([C@H]([C@H]1O)O)O)C)oc(cc2=O)c1ccc(cc1)O)O)[C@@H]1O[C@@H]([C@H]([C@@H]([C@H]1O)O)O)CO)O
INCHIKEY: MVOUGOXRXQDXDC-UHFFFAOYSA-N
PRECURSORTYPE: [M-H]-
IONMODE: negative
CHARGE: -1
PARENTMASS: 578.16355564
NUM PEAKS: 3
335.0558    0.006000451872908117
384.0825    0.0170660837856441
577.1548    1.0


