PRECURSORMZ: 293.103062296
COMPOUNDNAME: challenge-119
FORMULA: C15H18O6
SMILES: C(C(C(C)(C)O)O)(O)c1c(cc2c(c1)ccc(=O)o2)OC
INCHIKEY: PCSZTTAMZGNQNB-UHFFFAOYSA-N
PRECURSORTYPE: [M-H]-
IONMODE: negative
CHARGE: -1
PARENTMASS: 294.110338296
NUM PEAKS: 12
161.0213    0.3380993645291739
175.0339    1.0
176.0481    0.11019641825534374
189.0191    0.433997689196996
203.035     0.5408723281340266
204.0401    0.12001733102253033
261.078     0.22385904101675333
262.0828    0.049104563835932986
263.0836    0.0134315424610052
293.0996    0.008521086077411902
329.0778    0.06080300404390526
339.1086    0.24335644136337378


