PRECURSORMZ: 267.159085184
COMPOUNDNAME: challenge-157
FORMULA: C15H22O4
SMILES: C12=C(C(=O)OC1)CC(C1C(C2O)CC(C1)(C)C)(C)O
INCHIKEY: UUZWMJQAEYBHAO-UHFFFAOYSA-N
PRECURSORTYPE: [M+H]+
IONMODE: positive
CHARGE: 1
PARENTMASS: 266.151809184
NUM PEAKS: 123
67.0526     0.002883404188316801
69.0619     0.002479924421350968
79.0507     0.007055975436939065
81.0654     0.01074633915918753
91.0521     0.02041673227313284
93.0681     0.010342859392221697
95.0705     0.012045347189418989
97.0776     0.0028276386920694906
105.0692    0.053944916811000894
106.0707    0.0051829108276911775
107.0789    0.022991786070435102
109.0879    0.004933606256232614
111.0397    0.011533616753267204
119.0846    0.04906707605101559
120.0818    0.00510418306828321
121.1       0.02569149215346665
123.1125    0.02220450847635543
125.054     0.006829633128641158
129.0679    0.02207001522070015
131.0853    0.055148795465281064
132.0716    0.007580827166325513
133.0894    0.02277528473206319
135.0392    0.005553587361570357
143.086     0.03977720044087545
145.1018    0.1279490106544901
146.107     0.01798273237810319
147.08      0.015719309295124127
149.0618    0.01541095890410959
153.0552    0.025740697003096627
154.0508    0.0021682937070277644
157.1002    0.03791725712486223
159.1165    0.06509145541384559
160.1211    0.008994646512360259
161.0653    0.04409410591507899
162.0862    0.005763528053324935
163.0812    0.015558573452999528
163.5294    0.00035427491733585264
171.1114    0.011963339106702357
172.5458    0.0005904581955597543
173.1321    0.027823702304099095
174.1293    0.004605573925366084
175.0798    0.07041213982050071
176.08      0.008942161339421615
176.0988    0.009138980737941532
177.1251    0.008486196399517136
185.1088    0.08153243583687608
185.1331    0.08124376738571353
186.1149    0.015125570776255709
186.137     0.015119010129638377
187.1019    0.3254441557759933
187.1482    0.32826851414475416
187.6711    0.0015712748648506797
188.1528    0.05879979530782554
188.3343    0.002247021466435732
188.635     0.0014597438723560595
189.0932    0.06010536398467433
189.7529    0.0013941374061827534
190.0816    0.008289377000997218
191.1058    0.004526846165958117
193.08      0.005501102188631712
201.1274    0.02811893140187897
202.1287    0.006006271978166168
203.1432    0.1248589460977274
204.1472    0.01953760562641054
205.1184    0.012744056054164699
207.1313    0.004293943211042881
213.1294    0.07378103185849998
214.1267    0.013744554663307616
219.1399    0.01792368655854721
220.1272    0.0031327087597753634
221.1506    0.02222419041620742
222.1459    0.005117304361517872
230.1255    0.00461541489529208
231.1382    0.8709192778040203
231.4411    0.001377735789639427
231.676     0.004749908150947358
231.7845    0.004241458038104236
231.9458    0.008345142497244528
232.1429    0.1447869101978691
232.33      0.006065317797722144
232.3775    0.00608171941426547
232.7105    0.004261139977956228
232.9272    0.0035558704665931877
233.152     0.02186007452894557
233.3023    0.0032967249252086285
233.3888    0.0023618327822390174
233.5204    0.001964913661890516
233.6355    0.0018960268724085446
233.9578    0.0022995066393743766
234.139     0.0031031858499973755
234.2252    0.0020895659476197976
234.4479    0.001574555188159345
234.6279    0.0014958274287513779
247.1342    0.01669684564110639
248.1403    0.003962630556867685
248.6855    0.0012629244738361412
248.7704    0.0016959271505799613
248.9761    0.0030277384138980737
249.149     1.0
249.3374    0.003946228940324359
249.4407    0.005497821865323046
249.5607    0.007462735527213563
249.7298    0.012616123445126753
249.7974    0.009624468587623995
250.1552    0.19423778407599854
250.3251    0.00613748491051278
250.5381    0.010293654542591719
250.5757    0.01026413163281373
250.7666    0.002847320631921482
250.8761    0.006144045557130111
250.9321    0.006249015903007401
251.1566    0.02663950558967092
251.2927    0.00413320736891828
251.4256    0.004316905474203538
251.6201    0.002365113105547683
251.8195    0.0025881750905369237
251.8369    0.002617698000314911
252.1564    0.0037756521282737627
252.4584    0.0020469217446071487
252.5532    0.0017779352332965939
253.3552    0.0010234608723035743
259.0767    0.0038740618275337215
267.1606    0.08173253555870466


