PRECURSORMZ: 337.23733550399993
COMPOUNDNAME: challenge-168
FORMULA: C20H32O4
SMILES: C1CC(C2C(C1)(C(C(=C)CC2)CCC(CC(=O)O)C)C)(C(=O)O)C
INCHIKEY: HPQKNJHVWUWAOR-UHFFFAOYSA-N
PRECURSORTYPE: [M+H]+
IONMODE: positive
CHARGE: 1
PARENTMASS: 336.23005950399994
NUM PEAKS: 97
81.0666     0.020336587649782373
95.0822     0.03711828255328004
96.0679     0.004144484713961191
97.093      0.013924775001300571
99.0801     0.00479043473737146
105.0716    0.024294657256316438
108.0909    0.004985520314911475
109.0997    0.05350547106664124
110.0945    0.0054927428165155116
111.0931    0.010903116166958573
121.1009    0.055738117120710286
123.0966    0.01673834255293322
135.1072    0.11732446633256456
139.0941    0.02004179166594413
143.0996    0.014072172993219693
149.1293    0.15583435933896336
150.132     0.020822133976104187
157.1084    0.035696325454766156
159.1165    0.02915012051953457
163.1388    0.028720932248946538
164.1765    0.0027962266114068706
175.1446    0.039069138328680184
176.1466    0.007499956647649436
177.1568    0.03333795758406021
178.1703    0.004144484713961191
181.1329    0.012910329998092497
191.1406    0.01839873757955156
193.5927    0.0006242738481280455
194.5845    0.0010361211784902977
195.1356    0.034070612308599375
195.5706    0.0007283194894827198
199.1449    0.01635684186796608
203.1397    0.015619851908370473
208.6078    0.0006242738481280455
209.1539    0.0871685712799348
210.1548    0.013374200149132086
216.5797    0.0007760070751036121
217.1627    0.010556297362442991
217.5829    0.0007760070751036121
221.1542    0.03131773804775695
222.1675    0.004907486083895469
229.1954    0.008267293252640157
235.1685    0.03867896717360016
236.1259    0.008072207675100144
236.1658    0.0076170079941734435
249.1789    0.027892902353165588
251.1757    0.011973919225900428
255.206     0.04346073144085873
259.1709    0.05240432136230427
260.1694    0.010586644007838104
263.1884    0.01068201917907989
269.1894    0.0175403610383755
273.2106    0.11400801151438432
274.2132    0.023106802850850573
281.1848    0.022634262229698096
283.2011    0.0322714897601748
285.1841    0.018025907364697315
287.1965    0.026102450274853903
288.1873    0.005111242131548373
290.8598    0.001937850070230808
291.228     1.0
291.3378    0.0032167444118820126
291.3934    0.003173392061317565
291.7157    0.006021641493401773
291.834     0.008102554320495258
292.0482    0.008934919451332651
292.232     0.20977335391124907
292.389     0.008033190559592143
292.582     0.011067855099103473
292.8359    0.008115560025664591
292.925     0.008757174814018416
293.0607    0.010027398685556731
293.229     0.040530112542702064
293.3767    0.00858810064681707
293.4597    0.008614112057155739
293.7185    0.002644493384431304
293.7347    0.0026531638545441937
293.9436    0.002215305113843273
294.2045    0.004773093797145681
294.2427    0.004903150848839024
294.5704    0.0018164634886503547
294.6481    0.002336691695423726
294.7562    0.0021676175282223805
295.4319    0.0012962352818769833
301.2173    0.12055855168467235
302.2201    0.028942029236825224
305.1899    0.01661695597135277
306.1747    0.003788995439332721
319.2268    0.10621325888289664
320.2289    0.026119791215079683
320.425     0.001504326564586332
321.2121    0.025486846896838746
322.1806    0.005414708585499506
323.1732    0.00830631036814816
323.1964    0.006654585811642707
324.1763    0.0021676175282223805
337.237     0.11286784469453934


