PRECURSORMZ: 493.1715357799998
COMPOUNDNAME: challenge-097
FORMULA: C24H30O11
SMILES: c1c(ccc(c1)COC(=O)C(C(O)C)(Cc1ccc(cc1)O)O)OC1OC(C(C(C1O)O)O)CO
INCHIKEY: FKMASXTUONWHBB-UHFFFAOYSA-N
PRECURSORTYPE: [M-H]-
IONMODE: negative
CHARGE: -1
PARENTMASS: 494.17881177999976
NUM PEAKS: 28
107.051     0.10073177548238434
109.0567    0.002948775716233096
179.067     0.009120101296434662
181.0507    0.12945524648228737
182.058     0.014173515773383449
225.0766    1.0
225.3732    0.011293183594084197
225.7112    0.007722712417368688
225.754     0.013483376775967193
226.08      0.1500795656116856
226.2817    0.008812105380232365
226.4757    0.007848192235080735
226.6435    0.013340786074021685
226.6658    0.013414933239033347
226.8191    0.010454750266644613
227.0819    0.023544576705242203
227.315     0.0054754829547074895
227.4953    0.004192166637197922
227.6185    0.003296697028980134
227.8271    0.00417505575296446
228.1127    0.0035305457801707665
387.1299    0.06275131611217896
388.1328    0.012952939364729904
388.4757    0.0011578364997975213
388.8748    0.0009525058889959903
389.1384    0.0035989893171046103
390.1002    0.0006787317412606158
493.172     0.26826444301220004


