PRECURSORMZ: 391.1387436639999
COMPOUNDNAME: challenge-224
FORMULA: C20H22O8
SMILES: c1(c(c(c2c(c1)C1C(CO2)c2c(O1)c(c(c(c2)O)OC)OC)OC)OC)OC
INCHIKEY: YBVIOLRRXMAGAE-UHFFFAOYSA-N
PRECURSORTYPE: [M+H]+
IONMODE: positive
CHARGE: 1
PARENTMASS: 390.1314676639999
NUM PEAKS: 61
78.0372     0.003230437903804738
109.0635    0.015526714193314521
137.0599    0.0472233870910422
154.0624    0.06749091994626598
156.0774    0.00249834746575878
169.0867    0.05899369549302382
182.0583    0.05296638780891729
182.0961    0.05425287683111455
183.0667    0.17971754102904908
184.0697    0.02012893320918596
192.0443    0.004104681824966416
196.8298    0.0022851172410851997
196.9461    0.0022424711961504837
197.0806    1.0
197.4813    0.0015103807581045255
197.655     0.00535207863930686
197.7529    0.008834838975642
197.9626    0.013209612418528286
198.0865    0.1494352952883228
198.2945    0.007242719964745937
198.4113    0.0050038026056733464
198.6161    0.01026703531803288
198.6554    0.010299019851733917
199.0919    0.025050997562067766
199.3427    0.0023313171230978087
199.6233    0.0020647793422558336
199.6604    0.0020754408534895126
199.8672    0.0021287484096579076
200.0389    0.00391988229691598
203.5074    0.0016951802861549616
207.0758    0.03126310477422473
208.0663    0.006144584307676999
210.0776    0.015501837333769272
221.081     0.01854392187244568
222.0866    0.007086351133318645
227.0897    0.010263481480954987
228.5235    0.0034543296397119973
235.5296    0.0011407817020036536
236.0316    0.0021536252692031586
236.5335    0.0006325829998649542
243.0316    0.0008884592694732503
243.5427    0.0005472909099955222
244.0261    0.0005686139324628802
244.546     0.00020967638759568708
252.5449    0.00020967638759568708
311.0606    0.0066527830098156975
314.0795    0.010530019261796962
325.073     0.00830176341395805
326.0773    0.0068162595153987765
327.0794    0.02016447157996489
331.1084    0.01882467500159923
341.0732    0.005657708628005658
342.0811    0.008127625397141293
343.0842    0.014506762951959231
357.0993    0.047848862416751375
358.1034    0.021785021287484097
373.0955    0.009097822919406083
374.1043    0.010075128115826658
375.1082    0.09588963203570895
376.1109    0.023665001101689495
391.1387    0.23069733391142416


