BEGIN IONS
CHARGE=1+
PRECURSOR_MZ=480.30846544199983
COMPOUND_NAME=Challenge1
FORMULA=C23H46NO7P
SMILES=CCCCCCCC/C=C\CCCCCCCC(=O)OC[C@@H](O)COP(=O)(O)OCCN
INCHIKEY=PYVRVRFVLRNJLY-MZMPXXGTSA-N
ADDUCT=[M+H]+
IONMODE=positive
PARENT_MASS=479.30118944199984
155.0103 0.047 
308.2948 0.079 
339.2894 1.0 
419.2558 0.172 
462.2979 0.11800000000000001 
480.3084 0.152 
END IONS

BEGIN IONS
CHARGE=1+
PRECURSOR_MZ=206.06678209999998
COMPOUND_NAME=Challenge2
FORMULA=C8H15NOS2
SMILES=N=C(O)CCCCC1CCSS1
INCHIKEY=FCCDDURTIIUXBY-UHFFFAOYSA-N
ADDUCT=[M+H]+
IONMODE=positive
PARENT_MASS=205.0595061
101.0403 0.701 
127.0555 0.257 
161.046 1.0 
171.0267 0.262 
189.0406 0.591 
END IONS

BEGIN IONS
CHARGE=1-
PRECURSOR_MZ=195.053157768
COMPOUND_NAME=Challenge3
FORMULA=C9H9NO4
SMILES=O=C(O)CN=C(O)c1ccccc1O
INCHIKEY=ONJSZLXSECQROL-UHFFFAOYSA-N
ADDUCT=[M]-
IONMODE=negative
PARENT_MASS=196.060433768
93.0347 0.38 
150.0563 1.0 
194.0463 0.242 
END IONS

BEGIN IONS
CHARGE=1-
PRECURSOR_MZ=226.05897142
COMPOUND_NAME=Challenge4
FORMULA=C9H10N2O5
SMILES=N[C@@H](Cc1ccc(O)c([N+](=O)[O-])c1)C(=O)O
INCHIKEY=FBTSQILOGYXGMD-LURJTMIESA-N
ADDUCT=[M]-
IONMODE=negative
PARENT_MASS=227.06624742
119.0505 0.518 
134.0614 0.055999999999999994 
136.0406 0.184 
163.0516 1.0 
181.0622 0.521 
225.0523 0.055999999999999994 
END IONS

BEGIN IONS
CHARGE=1-
PRECURSOR_MZ=220.084792244
COMPOUND_NAME=Challenge5
FORMULA=C11H12N2O3
SMILES=NC(Cc1c[nH]c2ccc(O)cc12)C(=O)O
INCHIKEY=LDCYZAJDBXYCGN-UHFFFAOYSA-N
ADDUCT=[M]-
IONMODE=negative
PARENT_MASS=221.092068244
132.0456 0.6779999999999999 
144.0456 1.0 
158.0613 0.195 
175.0879 0.11199999999999999 
219.0778 0.539 
END IONS

BEGIN IONS
CHARGE=1-
PRECURSOR_MZ=168.042258736
COMPOUND_NAME=Challenge6
FORMULA=C8H8O4
SMILES=O=C(O)Cc1ccc(O)c(O)c1
INCHIKEY=CFFZDZCDUFSOFZ-UHFFFAOYSA-N
ADDUCT=[M]-
IONMODE=negative
PARENT_MASS=169.049534736
123.0455 1.0 
152.0451 0.10300000000000001 
END IONS

BEGIN IONS
CHARGE=1+
PRECURSOR_MZ=385.34649202799994
COMPOUND_NAME=Challenge7
FORMULA=C27H44O
SMILES=C=C1CC[C@H](O)C/C1=C/C=C1\CCC[C@@]2(C)[C@H]1CC[C@@H]2[C@H](C)CCCC(C)C
INCHIKEY=QYSXJUFSXHHAJI-YRZJJWOYSA-N
ADDUCT=[M+H]+
IONMODE=positive
PARENT_MASS=384.33921602799995
95.0855 0.195 
107.0855 0.145 
121.1019 0.10099999999999999 
133.1012 0.084 
135.1168 0.091 
147.1168 0.1 
159.1168 0.10800000000000001 
219.2107 0.063 
247.242 0.076 
259.242 0.244 
367.3359 0.6779999999999999 
385.3465 1.0 
END IONS

BEGIN IONS
CHARGE=1+
PRECURSOR_MZ=343.1234875239999
COMPOUND_NAME=Challenge8
FORMULA=C12H22O11
SMILES=OC[C@H]1O[C@H](O[C@]2(CO)O[C@H](CO)[C@@H](O)[C@@H]2O)[C@H](O)[C@@H](O)[C@@H]1O
INCHIKEY=CZMRCDWAGMRECN-UGDNZRGBSA-N
ADDUCT=[M+H]+
IONMODE=positive
PARENT_MASS=342.11621152399994
185.0421 0.532 
203.0526 1.0 
333.16 0.063 
350.1626 0.06 
END IONS

BEGIN IONS
CHARGE=1+
PRECURSOR_MZ=308.091082264
COMPOUND_NAME=Challenge9
FORMULA=C10H17N3O6S
SMILES=NC(CCC(O)=NC(CS)C(O)=NCC(=O)O)C(=O)O
INCHIKEY=RWSXRVCMGQZWBV-UHFFFAOYSA-N
ADDUCT=[M+H]+
IONMODE=positive
PARENT_MASS=307.08380626400003
116.0165 0.032 
144.0114 0.063 
162.0219 0.402 
179.0485 1.0 
233.059 0.21600000000000003 
290.0802 0.051 
END IONS

BEGIN IONS
CHARGE=1+
PRECURSOR_MZ=348.07036041799995
COMPOUND_NAME=Challenge10
FORMULA=C10H14N5O7P
SMILES=Nc1ncnc2c1ncn2[C@@H]1O[C@H](COP(=O)(O)O)[C@@H](O)[C@H]1O
INCHIKEY=UDMBCSSLTHHNCD-KQYNXXCUSA-N
ADDUCT=[M+H]+
IONMODE=positive
PARENT_MASS=347.06308441799996
85.028 0.11900000000000001 
98.9844 0.172 
136.0619 1.0 
END IONS

BEGIN IONS
CHARGE=1+
PRECURSOR_MZ=181.07200149599998
COMPOUND_NAME=Challenge11
FORMULA=C7H8N4O2
SMILES=Cn1c(=O)c2nc[nH]c2n(C)c1=O
INCHIKEY=ZFXYFBGIUFBOJW-UHFFFAOYSA-N
ADDUCT=[M+H]+
IONMODE=positive
PARENT_MASS=180.064725496
109.0271 0.073 
124.0506 1.0 
125.0539 0.055999999999999994 
142.0611 0.034 
181.072 0.037000000000000005 
END IONS

BEGIN IONS
CHARGE=1+
PRECURSOR_MZ=205.118282992
COMPOUND_NAME=Challenge12
FORMULA=C8H16N2O4
SMILES=N[C@@H](CCCCNCC(=O)O)C(=O)O
INCHIKEY=NUXSIDPKKIEIMI-LURJTMIESA-N
ADDUCT=[M+H]+
IONMODE=positive
PARENT_MASS=204.111006992
84.0816 0.624 
130.0881 1.0 
142.0893 0.18100000000000002 
159.1119 0.027999999999999997 
187.1119 0.09 
188.0923 0.027000000000000003 
205.1178 0.879 
END IONS

BEGIN IONS
CHARGE=1-
PRECURSOR_MZ=352.2249741239999
COMPOUND_NAME=Challenge13
FORMULA=C20H32O5
SMILES=CCCCC[C@H](O)/C=C/[C@H]1C(=O)C[C@H](O)[C@@H]1C/C=C\CCCC(=O)O
INCHIKEY=BHMBVRSPMRCCGG-OUTUXVNYSA-N
ADDUCT=[M]-
IONMODE=negative
PARENT_MASS=353.2322501239999
189.129 0.324 
233.1188 0.527 
251.1279 0.026000000000000002 
271.1926 0.758 
315.1974 0.884 
333.2082 1.0 
END IONS

BEGIN IONS
CHARGE=1+
PRECURSOR_MZ=224.091733896
COMPOUND_NAME=Challenge14
FORMULA=C11H13NO4
SMILES=CC1NC(C(=O)O)Cc2cc(O)c(O)cc21
INCHIKEY=DMJYNLHZLIZUQE-UHFFFAOYSA-N
ADDUCT=[M+H]+
IONMODE=positive
PARENT_MASS=223.084457896
137.0611 0.1 
178.087 1.0 
207.0663 0.02 
224.0922 0.524 
END IONS

BEGIN IONS
CHARGE=1+
PRECURSOR_MZ=231.11280368799999
COMPOUND_NAME=Challenge15
FORMULA=C13H14N2O2
SMILES=CC1NC(C(=O)O)Cc2c1[nH]c1ccccc21
INCHIKEY=ZUPHXNBLQCSEIA-UHFFFAOYSA-N
ADDUCT=[M+H]+
IONMODE=positive
PARENT_MASS=230.105527688
118.0653 0.086 
130.0647 0.12300000000000001 
143.0718 0.201 
144.0813 0.1 
146.0593 0.22399999999999998 
154.0648 0.145 
158.0957 1.0 
168.0821 0.402 
188.0695 0.285 
214.085 0.278 
231.1136 0.04 
END IONS

BEGIN IONS
CHARGE=1+
PRECURSOR_MZ=275.134995676
COMPOUND_NAME=Challenge16
FORMULA=C10H18N4O5
SMILES=N=C(N)NCCC[C@H](N=C(O)CCC(=O)O)C(=O)O
INCHIKEY=UMOXFSXIFQOWTD-LURJTMIESA-N
ADDUCT=[M+H]+
IONMODE=positive
PARENT_MASS=274.127719676
70.0666 0.065 
95.061 0.027000000000000003 
112.0872 0.053 
116.0737 0.026000000000000002 
140.0845 0.026000000000000002 
158.0945 0.057999999999999996 
175.1203 0.23800000000000002 
197.093 0.071 
198.0775 0.031 
212.1036 0.044000000000000004 
215.1041 0.042 
216.0882 0.07 
222.0868 0.036000000000000004 
240.1024 0.063 
257.1251 0.027999999999999997 
258.1111 0.024 
275.1357 1.0 
END IONS

BEGIN IONS
CHARGE=1+
PRECURSOR_MZ=251.03073093999998
COMPOUND_NAME=Challenge17
FORMULA=C11H10N2OS2
SMILES=CSC1=NC[C@]2(S1)C(O)=Nc1ccccc12
INCHIKEY=FUHQSEOSBHASCH-LLVKDONJSA-N
ADDUCT=[M+H]+
IONMODE=positive
PARENT_MASS=250.02345494
90.9673 0.204 
117.0565 0.027999999999999997 
145.0518 0.071 
150.039 0.025 
160.0217 0.126 
160.0651 0.035 
175.0892 0.053 
176.0169 0.03 
178.0323 1.0 
203.0279 0.7909999999999999 
217.0449 0.035 
223.0366 0.024 
234.0052 0.025 
251.0313 0.47 
END IONS

BEGIN IONS
CHARGE=1+
PRECURSOR_MZ=253.009995496
COMPOUND_NAME=Challenge18
FORMULA=C10H8N2O2S2
SMILES=[O-][n+]1ccccc1SSc1cccc[n+]1[O-]
INCHIKEY=ZHDBTKPXEJDTTQ-UHFFFAOYSA-N
ADDUCT=[M+H]+
IONMODE=positive
PARENT_MASS=252.002719496
78.0336 0.643 
96.0453 0.38 
126.002 0.28300000000000003 
127.0086 0.136 
141.9957 0.773 
205.0487 0.16399999999999998 
253.0097 1.0 
END IONS

BEGIN IONS
CHARGE=1+
PRECURSOR_MZ=366.1911135839999
COMPOUND_NAME=Challenge19
FORMULA=C19H27NO6
SMILES=C/C=C1\C[C@@H](C)[C@@](C)(O)C(=O)OC/C2=C/CN(C)CCC(OC1=O)C2=O
INCHIKEY=HPDHKHMHQGCNPE-PYWIAZMFSA-N
ADDUCT=[M+H]+
IONMODE=positive
PARENT_MASS=365.1838375839999
94.0668 0.02 
122.062 0.055 
124.078 0.02 
150.0934 0.16399999999999998 
153.0938 0.02 
168.104 0.278 
348.183 0.02 
366.1934 1.0 
END IONS

BEGIN IONS
CHARGE=1-
PRECURSOR_MZ=335.09249761199993
COMPOUND_NAME=Challenge20
FORMULA=C20H16O5
SMILES=CC1(C)C=Cc2c(ccc3cc(-c4ccc(O)cc4O)c(=O)oc23)O1
INCHIKEY=VFIXONREXXFDQV-UHFFFAOYSA-N
ADDUCT=[M-H]-
IONMODE=negative
PARENT_MASS=336.0997736119999
148.0147 0.03 
149.0242 0.066 
245.0963 0.022000000000000002 
252.0372 0.027000000000000003 
263.107 0.035 
273.0929 0.036000000000000004 
275.0712 0.040999999999999995 
279.1018 0.02 
289.0906 0.06 
291.104 0.159 
292.0955 0.027000000000000003 
307.0992 0.282 
317.0819 0.092 
319.0617 0.040999999999999995 
335.0924 1.0 
END IONS

BEGIN IONS
CHARGE=1+
PRECURSOR_MZ=314.13868408799993
COMPOUND_NAME=Challenge21
FORMULA=C18H19NO4
SMILES=COc1ccc2c(c1O)[C@]13CCN(C)[C@](O)(C1)C(=O)C=C3C=C2
INCHIKEY=KDYWOWVAVXEYRU-MSOLQXFVSA-N
ADDUCT=[M+H]+
IONMODE=positive
PARENT_MASS=313.13140808799994
141.0719 0.027000000000000003 
165.0701 0.043 
167.0884 0.043 
169.0644 0.18 
179.0846 0.021 
181.0656 0.040999999999999995 
193.0666 0.126 
195.0834 0.172 
197.0611 0.415 
205.0665 0.023 
207.0455 0.022000000000000002 
207.0845 0.048 
208.1118 0.14800000000000002 
209.0589 0.022000000000000002 
211.0756 0.049 
221.0791 0.035 
223.0829 0.031 
224.0819 0.028999999999999998 
225.0547 0.083 
225.0893 0.111 
229.0842 0.048 
236.1095 0.221 
237.094 0.054000000000000006 
238.0783 0.10099999999999999 
239.1054 0.053 
240.1008 0.054000000000000006 
242.1184 0.045 
253.1084 0.52 
254.1173 0.037000000000000005 
264.1005 0.04 
266.0812 0.111 
268.135 1.0 
281.107 0.175 
296.1289 0.6659999999999999 
END IONS

BEGIN IONS
CHARGE=1+
PRECURSOR_MZ=285.07574948399997
COMPOUND_NAME=Challenge22
FORMULA=C16H12O5
SMILES=Oc1ccc2c(c1)OC[C@H]1c3cc4c(cc3O[C@@H]21)OCO4
INCHIKEY=HUKSJTUUSUGIDC-ZBEGNZNMSA-N
ADDUCT=[M+H]+
IONMODE=positive
PARENT_MASS=284.068473484
67.056 0.033 
93.0352 0.027999999999999997 
95.0507 0.034 
121.0289 0.04 
123.045 0.409 
147.0462 0.055999999999999994 
151.04 1.0 
163.0395 0.051 
175.0393 0.249 
227.0724 0.043 
255.0678 0.151 
257.0836 0.033 
285.0768 0.245 
END IONS

BEGIN IONS
CHARGE=1+
PRECURSOR_MZ=266.09827582
COMPOUND_NAME=Challenge23
FORMULA=C8H15N3O7
SMILES=CN(N=O)C(O)=N[C@H]1[C@@H](O)O[C@H](CO)[C@@H](O)[C@@H]1O
INCHIKEY=ZSJLQEPLLKMAKR-GKHCUFPYSA-N
ADDUCT=[M+H]+
IONMODE=positive
PARENT_MASS=265.09099982000004
139.0476 0.064 
157.0578 0.048 
228.0488 1.0 
241.0847 0.038 
246.0606 0.024 
288.0813 0.051 
END IONS

BEGIN IONS
CHARGE=1+
PRECURSOR_MZ=478.32352471599995
COMPOUND_NAME=Challenge24
FORMULA=C21H43N5O7
SMILES=CNC(C)C1CCC(N)C(OC2C(N)CC(N)C(OC3OCC(C)(O)C(NC)C3O)C2O)O1
INCHIKEY=CEAZRRDELHUEMR-UHFFFAOYSA-N
ADDUCT=[M+H]+
IONMODE=positive
PARENT_MASS=477.31624871599996
160.097 0.022000000000000002 
322.1973 1.0 
461.2965 0.276 
END IONS

BEGIN IONS
CHARGE=1+
PRECURSOR_MZ=481.1704377159997
COMPOUND_NAME=Challenge26
FORMULA=C23H28O11
SMILES=C[C@@]12C[C@@]3(O)O[C@@H](O1)[C@]1(COC(=O)c4ccccc4)[C@H]3C[C@]21O[C@@H]1O[C@H](CO)[C@@H](O)[C@H](O)[C@H]1O
INCHIKEY=YKRGDOXKVOZESV-WRJNSLSBSA-N
ADDUCT=[M+H]+
IONMODE=positive
PARENT_MASS=480.1631617159997
219.0627 0.13 
281.051 0.077 
307.0788 0.11 
341.0995 1.0 
342.103 0.115 
381.1156 0.9620000000000001 
382.1191 0.096 
END IONS

BEGIN IONS
CHARGE=1+
PRECURSOR_MZ=351.2166000599999
COMPOUND_NAME=Challenge27
FORMULA=C20H30O5
SMILES=C=C1CC[C@H]2[C@@](C)(CC[C@@H](O)[C@@]2(C)CO)[C@@H]1C/C=C1/C(=O)OC[C@H]1O
INCHIKEY=BOJKULTULYSRAS-OTESTREVSA-N
ADDUCT=[M+H]+
IONMODE=positive
PARENT_MASS=350.2093240599999
111.0464 0.021 
133.1032 0.021 
145.1016 0.033 
147.1194 0.031 
175.1519 0.075 
177.0935 0.03 
187.1482 0.043 
201.0939 0.025 
203.109 0.025 
205.1429 0.023 
205.1701 0.023 
211.1486 0.043 
215.1113 0.036000000000000004 
227.1077 0.044000000000000004 
229.1237 0.023 
241.1214 0.043 
255.1408 0.124 
257.1563 1.0 
269.156 0.03 
271.1792 0.043 
285.1877 0.647 
287.2061 0.107 
297.1858 0.885 
303.1987 0.092 
315.1962 0.467 
333.2063 0.262 
351.2179 0.105 
END IONS

BEGIN IONS
CHARGE=1-
PRECURSOR_MZ=369.13436242399985
COMPOUND_NAME=Challenge28
FORMULA=C21H22O6
SMILES=COc1cc(O)c(CC=C(C)C)c2c1C(=O)C(O)C(c1ccc(O)cc1)O2
INCHIKEY=CTUJEHJOZXGIIE-UHFFFAOYSA-N
ADDUCT=[M-H]-
IONMODE=negative
PARENT_MASS=370.14163842399984
124.0172 0.02 
137.0237 0.026000000000000002 
138.0308 0.064 
139.0405 0.034 
192.0784 0.057 
203.07 0.037000000000000005 
207.1017 1.0 
219.0658 0.055999999999999994 
233.0818 0.07200000000000001 
235.0964 0.04 
247.0612 0.124 
262.0847 0.027999999999999997 
263.093 0.037000000000000005 
283.0616 0.027000000000000003 
293.1167 0.023 
309.1121 0.04 
310.1206 0.028999999999999998 
325.1437 0.177 
337.1087 0.053 
341.139 0.8290000000000001 
351.1211 0.025 
369.1333 0.244 
END IONS

BEGIN IONS
CHARGE=1+
PRECURSOR_MZ=372.1360972439999
COMPOUND_NAME=Challenge29
FORMULA=C21H22ClNO3
SMILES=C[N+]1(C)[C@H]2Cc3cc4c(cc3[C@@H]1Cc1cc3c(cc12)COC3)OCO4.[Cl-]
INCHIKEY=GLCGPUDWOPXBAY-HLRBRJAUSA-M
ADDUCT=[M+H]+
IONMODE=positive
PARENT_MASS=371.12882124399994
205.0628 0.048 
233.0588 0.034 
235.074 0.21899999999999997 
263.0687 0.21100000000000002 
293.0779 0.523 
338.1392 1.0 
END IONS

BEGIN IONS
CHARGE=1+
PRECURSOR_MZ=473.36253601599986
COMPOUND_NAME=Challenge30
FORMULA=C30H48O4
SMILES=C[C@@H]1C2C3=CCC4[C@@]5(C)C[C@@H](O)[C@@H](O)C(C)(C)C5CC[C@@]4(C)[C@]3(C)CC[C@@]2(C(=O)O)CC[C@H]1C
INCHIKEY=HFGSQOYIOKBQOW-FCPFUEDDSA-N
ADDUCT=[M+H]+
IONMODE=positive
PARENT_MASS=472.3552600159999
95.0854 0.051 
119.0886 0.028999999999999998 
121.1034 0.027999999999999997 
133.1034 0.057 
145.1018 0.063 
147.1178 0.055 
149.1305 0.023 
159.1154 0.047 
161.1328 0.027999999999999997 
163.1132 0.105 
175.1512 0.045 
177.1672 0.121 
187.1511 0.29 
189.1642 0.311 
191.1828 0.035 
201.1723 0.023 
203.1818 0.385 
205.1606 0.6709999999999999 
207.1759 0.11599999999999999 
213.1691 0.051 
223.1708 0.033 
249.1859 0.128 
295.2424 0.043 
313.2556 0.10400000000000001 
391.3397 0.11800000000000001 
409.3496 0.8 
427.3609 0.08900000000000001 
437.3434 1.0 
455.3524 0.532 
473.3648 0.067 
END IONS

BEGIN IONS
CHARGE=1+
PRECURSOR_MZ=302.07794055608997
COMPOUND_NAME=Challenge31
FORMULA=C16H13O6+
SMILES=COc1cc(-c2[o+]c3cc(O)cc(O)c3cc2O)ccc1O
INCHIKEY=XFDQJKDGGOEYPI-UHFFFAOYSA-O
ADDUCT=[M+H]+
IONMODE=positive
PARENT_MASS=301.07066455609
201.0563 0.053 
202.065 0.065 
213.0534 0.035 
230.0588 0.11199999999999999 
257.047 0.054000000000000006 
258.0537 0.332 
268.0398 0.057 
285.0399 0.022000000000000002 
286.0495 1.0 
301.0727 0.782 
END IONS

BEGIN IONS
CHARGE=1+
PRECURSOR_MZ=207.137955816
COMPOUND_NAME=Challenge32
FORMULA=C13H18O2
SMILES=CC(C)Cc1ccc(C(C)C(=O)O)cc1
INCHIKEY=HEFNNWSXXWATRW-UHFFFAOYSA-N
ADDUCT=[M+H]+
IONMODE=positive
PARENT_MASS=206.130679816
105.07 0.48100000000000004 
119.0856 0.7759999999999999 
161.1325 1.0 
END IONS

BEGIN IONS
CHARGE=1+
PRECURSOR_MZ=382.083158348
COMPOUND_NAME=Challenge33
FORMULA=C17H14F3N3O2S
SMILES=Cc1ccc(-c2cc(C(F)(F)F)nn2-c2ccc(S(N)(=O)=O)cc2)cc1
INCHIKEY=RZEKVGVHFLEQIL-UHFFFAOYSA-N
ADDUCT=[M+H]+
IONMODE=positive
PARENT_MASS=381.075882348
207.1052 0.040999999999999995 
233.1087 0.05 
261.0864 0.023 
262.0959 0.027999999999999997 
263.101 0.066 
267.08 0.057 
275.0802 0.037000000000000005 
281.0915 0.12300000000000001 
282.0983 0.22699999999999998 
283.104 0.138 
286.0854 0.023 
287.0835 0.096 
300.0885 0.22899999999999998 
301.0947 0.217 
302.1031 0.17300000000000001 
303.1137 0.23600000000000002 
342.0779 0.066 
362.0806 1.0 
382.042 0.38799999999999996 
END IONS

BEGIN IONS
CHARGE=1+
PRECURSOR_MZ=394.176132216
COMPOUND_NAME=Challenge34
FORMULA=C22H23N3O4
SMILES=C#Cc1cccc(Nc2ncnc3cc(OCCOC)c(OCCOC)cc23)c1
INCHIKEY=AAKJLRGGTJKAMG-UHFFFAOYSA-N
ADDUCT=[M+H]+
IONMODE=positive
PARENT_MASS=393.168856216
250.1006 0.061 
276.0771 0.077 
277.0904 0.035 
278.094 1.0 
292.114 0.04 
304.1109 0.11199999999999999 
336.1363 0.32299999999999995 
394.1775 0.07400000000000001 
END IONS

BEGIN IONS
CHARGE=1-
PRECURSOR_MZ=209.04554742000002
COMPOUND_NAME=Challenge35
FORMULA=C10H10O5
SMILES=O=C(O)C(Cc1ccc(O)cc1)C(=O)O
INCHIKEY=JXJNPXPDKYRHJT-UHFFFAOYSA-N
ADDUCT=[M-H]-
IONMODE=negative
PARENT_MASS=210.05282342
59.0125 0.047 
93.033 0.066 
119.0483 0.037000000000000005 
121.0646 0.213 
165.0546 1.0 
END IONS

BEGIN IONS
CHARGE=1+
PRECURSOR_MZ=210.079074634
COMPOUND_NAME=Challenge36
FORMULA=C9H12N3OP
SMILES=N#CCCP(=O)(CCC#N)CCC#N
INCHIKEY=ILFYYSUCZQEGOL-UHFFFAOYSA-N
ADDUCT=[M+H]+
IONMODE=positive
PARENT_MASS=209.071798634
54.0347 0.040999999999999995 
86.0158 0.255 
104.0272 0.534 
157.0541 1.0 
210.0806 0.39799999999999996 
END IONS

BEGIN IONS
CHARGE=1+
PRECURSOR_MZ=305.0818091759999
COMPOUND_NAME=Challenge37
FORMULA=C13H18Cl2N2O2
SMILES=N[C@@H](Cc1ccc(N(CCCl)CCCl)cc1)C(=O)O
INCHIKEY=SGDBTWWWUNNDEQ-LBPRGKRZSA-N
ADDUCT=[M+H]+
IONMODE=positive
PARENT_MASS=304.07453317599993
246.0469 0.26899999999999996 
259.0789 0.051 
288.0562 1.0 
END IONS

BEGIN IONS
CHARGE=1+
PRECURSOR_MZ=426.242755232
COMPOUND_NAME=Challenge38
FORMULA=C29H31NO2
SMILES=COc1ccc2c(c1)CCC(c1ccccc1)=C2c1ccc(OCCN2CCCC2)cc1
INCHIKEY=JEYWNNAZDLFBFF-UHFFFAOYSA-N
ADDUCT=[M+H]+
IONMODE=positive
PARENT_MASS=425.235479232
98.0962 0.047 
328.1467 0.061 
355.1725 0.026000000000000002 
426.2435 1.0 
END IONS

BEGIN IONS
CHARGE=1+
PRECURSOR_MZ=357.145366768
COMPOUND_NAME=Challenge39
FORMULA=C20H24N2S2
SMILES=CSc1ccc2c(c1)C(N1CCN(C)CC1)Cc1ccccc1S2
INCHIKEY=RLJFTICUTYVZDG-UHFFFAOYSA-N
ADDUCT=[M+H]+
IONMODE=positive
PARENT_MASS=356.138090768
209.0434 0.071 
210.0514 0.359 
224.0666 0.11599999999999999 
242.0238 0.061 
257.0465 1.0 
END IONS

BEGIN IONS
CHARGE=1-
PRECURSOR_MZ=228.115029752
COMPOUND_NAME=Challenge40
FORMULA=C15H16O2
SMILES=CC(C)(c1ccc(O)cc1)c1ccc(O)cc1
INCHIKEY=IISBACLAFKSPIT-UHFFFAOYSA-N
ADDUCT=[M]-
IONMODE=negative
PARENT_MASS=229.122305752
133.0679 0.10300000000000001 
211.0769 0.077 
212.0847 0.298 
227.1081 1.0 
END IONS

BEGIN IONS
CHARGE=1+
PRECURSOR_MZ=523.090332696
COMPOUND_NAME=Challenge41
FORMULA=C31H23BrO3
SMILES=O=c1oc2ccccc2c(O)c1C1CC(c2ccc(-c3ccc(Br)cc3)cc2)Cc2ccccc21
INCHIKEY=VEUZZDOCACZPRY-UHFFFAOYSA-N
ADDUCT=[M+H]+
IONMODE=positive
PARENT_MASS=522.083056696
107.0511 0.03 
121.0281 0.024 
165.0718 0.113 
175.0409 0.111 
178.0796 0.401 
189.0551 0.096 
291.0994 0.145 
335.0461 1.0 
419.0258 0.02 
523.093 0.075 
END IONS

BEGIN IONS
CHARGE=1+
PRECURSOR_MZ=309.1597538799999
COMPOUND_NAME=Challenge42
FORMULA=C19H20N2O2
SMILES=CCCCC1C(=O)N(c2ccccc2)N(c2ccccc2)C1=O
INCHIKEY=VYMDGNCVAMGZFE-UHFFFAOYSA-N
ADDUCT=[M+H]+
IONMODE=positive
PARENT_MASS=308.15247787999994
120.0454 0.1 
132.0468 0.034 
146.062 0.043 
160.1121 0.07 
162.13 0.064 
188.1075 0.374 
190.1238 0.253 
211.0868 0.314 
216.1046 0.075 
253.0981 0.033 
263.1545 0.031 
309.1604 1.0 
END IONS

